2621
None None None
P        0.00000000     0.00000000     0.00000000
O        0.00000000     0.00000000     1.71300000
O        0.00000000     1.61500000    -0.57100000
O        1.39900000    -0.80700000    -0.57100000
O       -1.39900000    -0.80700000    -0.57100000
O      -10.87500000    -0.91700000    -0.66800000
H      -10.97500000    -0.16800000    -0.08100000
H      -10.33000000    -1.53400000    -0.18000000
O        4.40600000     2.41200000   -10.96700000
H        4.31100000     1.53400000   -10.59700000
H        3.64100000     2.51700000   -11.53200000
O        6.29200000    -9.32900000    15.50200000
H        5.54500000    -9.63800000    16.01500000
H        5.92400000    -8.66600000    14.91800000
O       -8.03200000    12.68200000   -10.29600000
H       -8.73700000    12.12500000    -9.96600000
H       -8.00700000    13.42100000    -9.68800000
O        6.12900000   -13.44300000     7.30600000
H        5.96900000   -14.29200000     6.89400000
H        6.63900000   -12.95400000     6.66000000
O       -8.28500000     4.11800000     7.04100000
H       -8.61200000     4.77300000     7.65900000
H       -7.34300000     4.28100000     6.99600000
O       -9.11700000    -7.62300000    -5.72800000
H       -9.58200000    -8.42000000    -5.98100000
H       -9.09300000    -7.09600000    -6.52700000
O      -14.36000000    -0.51900000    -5.89300000
H      -15.18300000    -0.19900000    -6.26500000
H      -14.08700000    -1.22000000    -6.48400000
O        3.86000000     4.02100000    -5.14500000
H        3.47300000     3.58000000    -4.38800000
H        3.15300000     4.56400000    -5.49300000
O       -5.93200000    -5.91000000     3.39700000
H       -6.53800000    -6.34300000     3.99900000
H       -5.60200000    -6.61600000     2.84100000
O       -3.77000000    -3.24400000    -8.72500000
H       -4.35400000    -2.79400000    -8.11500000
H       -3.31700000    -3.89500000    -8.18900000
O        7.08400000    -5.08800000    -8.09300000
H        6.99500000    -4.85400000    -9.01700000
H        7.74300000    -4.48100000    -7.75500000
O       -9.38100000    -0.90600000    -5.47900000
H       -9.23100000    -0.87500000    -4.53400000
H      -10.24200000    -0.50600000    -5.59900000
O       14.31200000     4.36800000     0.77300000
H       14.65200000     4.94100000     1.46100000
H       14.90200000     4.50600000     0.03200000
O      -12.46300000    -7.42900000    14.41800000
H      -11.72200000    -7.01700000    14.86400000
H      -12.13300000    -7.63200000    13.54300000
O       -2.06500000    10.96000000    -0.23100000
H       -1.13200000    10.76800000    -0.32000000
H       -2.47200000    10.52900000    -0.98200000
O       13.04100000    -9.02900000    -8.88000000
H       12.10100000    -8.90900000    -9.01600000
H       13.22000000    -9.91300000    -9.19900000
O        3.36700000     6.76700000   -13.74800000
H        2.71300000     7.45700000   -13.86200000
H        3.28300000     6.22500000   -14.53200000
O       -4.31100000     1.39200000    -7.76400000
H       -3.86200000     2.23300000    -7.68000000
H       -5.11900000     1.50100000    -7.26200000
O        3.43600000    -9.73500000    10.61700000
H        3.11900000   -10.07800000    11.45200000
H        3.37600000   -10.47600000    10.01400000
O       13.80400000    -4.65300000     1.34400000
H       12.86500000    -4.59200000     1.17000000
H       13.86100000    -4.99600000     2.23600000
O      -12.60700000     6.17800000   -10.58300000
H      -11.81400000     6.71400000   -10.58200000
H      -12.32300000     5.32800000   -10.24700000
O        2.98200000    -0.13600000    -3.76400000
H        2.25600000    -0.22800000    -4.38100000
H        2.70800000    -0.63600000    -2.99500000
O       -1.46600000     0.08600000   -13.89400000
H       -2.09500000    -0.61500000   -13.72300000
H       -1.91800000     0.67100000   -14.50200000
O        1.93700000     7.43600000    -1.06200000
H        2.28200000     8.31200000    -1.23100000
H        2.66700000     6.84800000    -1.25600000
O      -10.56400000    14.19400000    11.80500000
H      -10.09800000    13.51700000    11.31400000
H      -11.21200000    14.53500000    11.18800000
O       -3.23600000     8.52600000    -5.88600000
H       -3.30600000     9.29000000    -6.45700000
H       -2.92000000     7.82600000    -6.45800000
O       -0.46500000    11.45700000   -12.53800000
H        0.15900000    11.45100000   -13.26400000
H       -0.02400000    10.97200000   -11.84000000
O      -13.40700000    -6.72400000    -9.29100000
H      -13.08300000    -7.51200000    -9.72600000
H      -12.62100000    -6.29800000    -8.94800000
O      -10.61800000   -12.89700000     2.20900000
H      -11.54900000   -12.76000000     2.03500000
H      -10.22800000   -13.02100000     1.34400000
O        1.98200000    -0.21100000    13.95600000
H        2.82400000    -0.60900000    14.17700000
H        2.14500000     0.25400000    13.13500000
O       -3.97700000   -12.41100000     3.71700000
H       -4.23900000   -11.49000000     3.71000000
H       -3.30400000   -12.46400000     4.39500000
O        0.15900000   -13.91200000    -5.55700000
H       -0.23100000   -13.16400000    -6.00900000
H        0.09400000   -14.63200000    -6.18400000
O       -8.12100000    12.33400000    -4.67100000
H       -7.90400000    13.21700000    -4.37300000
H       -7.97900000    12.35800000    -5.61700000
O       -2.71900000    -5.51600000    12.53100000
H       -3.12000000    -4.76500000    12.09500000
H       -2.01000000    -5.14000000    13.05300000
O       13.53900000     0.97900000    -6.78600000
H       13.45300000     1.55700000    -7.54400000
H       13.19200000     1.48900000    -6.05400000
O       -6.64200000    -8.20800000   -10.92700000
H       -5.97800000    -7.68600000   -11.37700000
H       -7.00800000    -7.61500000   -10.27000000
O        9.38900000    -5.18100000     2.93600000
H        9.72500000    -6.07400000     2.86600000
H        9.29500000    -5.03300000     3.87700000
O       -7.20200000    -0.82200000    -7.33700000
H       -7.83700000    -1.08300000    -6.67000000
H       -6.63100000    -1.58400000    -7.43600000
O       -5.91000000   -11.78500000    -2.12800000
H       -5.73000000   -11.32900000    -2.95000000
H       -5.22300000   -11.48600000    -1.53100000
O        0.85500000    -0.59900000    -5.41800000
H        0.16900000    -0.02600000    -5.76000000
H        0.40600000    -1.42100000    -5.22100000
O       -7.34700000     2.70900000    -1.92700000
H       -7.86300000     3.30200000    -1.38000000
H       -7.38200000     1.86900000    -1.46900000
O        7.45900000   -10.98700000   -11.76500000
H        6.68600000   -11.01700000   -12.32900000
H        7.80200000   -10.10000000   -11.87600000
O        6.23300000     5.90900000     0.51800000
H        5.88000000     6.44600000     1.22800000
H        6.95200000     6.42900000     0.15800000
O       -7.78800000    -6.38900000    15.42300000
H       -7.63600000    -5.85000000    16.19900000
H       -6.93100000    -6.45100000    15.00200000
O       -4.58600000    11.29200000    12.36600000
H       -4.59400000    11.69100000    11.49600000
H       -5.38000000    11.62100000    12.78800000
O       -3.80400000    11.70500000   -12.87100000
H       -3.74500000    12.65500000   -12.76900000
H       -3.35700000    11.35300000   -12.10200000
O      -10.30900000   -10.98100000    -2.08200000
H      -11.16200000   -10.64200000    -2.35600000
H       -9.76500000   -10.20100000    -1.97500000
O       -1.84900000    -2.27300000    12.62900000
H       -1.42200000    -2.54500000    11.81600000
H       -1.13400000    -2.18800000    13.25900000
O       -3.63000000     6.22500000    -1.44900000
H       -3.65100000     6.99400000    -2.02000000
H       -2.70900000     5.96600000    -1.43000000
O        0.57500000   -10.09000000     8.77900000
H        1.12700000    -9.44900000     8.33100000
H        0.27100000   -10.67300000     8.08400000
O       -0.46300000     4.93400000    -6.62200000
H       -0.97500000     4.36900000    -6.04400000
H       -1.08900000     5.58800000    -6.93400000
O      -10.07900000    -0.51200000    -8.37500000
H       -9.75300000    -1.31100000    -7.96000000
H      -10.60000000    -0.08400000    -7.69600000
O       -3.05400000    -9.66100000     4.00200000
H       -2.18500000    -9.27500000     3.89500000
H       -3.23000000    -9.60000000     4.94100000
O      -11.99600000     9.12900000    -9.43600000
H      -12.43600000     8.53900000    -8.82400000
H      -11.20500000     8.65800000    -9.69800000
O       -5.60500000    -8.59400000    -0.86900000
H       -6.52800000    -8.77100000    -0.68800000
H       -5.45100000    -8.98200000    -1.73000000
O       -8.53700000     4.45500000    -0.21800000
H       -9.19900000     4.36400000     0.46700000
H       -7.90600000     5.07900000     0.14000000
O       -2.26900000    -9.85000000    -1.39400000
H       -1.44000000   -10.31600000    -1.50600000
H       -2.62600000   -10.19100000    -0.57300000
O       -4.07700000     0.92300000    -2.52800000
H       -4.92500000     0.51600000    -2.70400000
H       -4.26700000     1.86000000    -2.47300000
O       -3.71800000    -5.94000000    -5.07900000
H       -3.65500000    -6.64900000    -4.43800000
H       -4.32300000    -5.31300000    -4.68500000
O       -7.61900000    14.22000000   -12.74900000
H       -8.31500000    13.69500000   -13.14400000
H       -7.70900000    14.06800000   -11.80800000
O        0.69400000     4.01500000    -9.88000000
H        0.87100000     4.01100000   -10.82000000
H        1.25200000     3.32100000    -9.52800000
O       -8.98900000   -13.71200000    -9.96600000
H       -8.14000000   -14.12100000   -10.13500000
H       -8.83500000   -12.77700000   -10.09800000
O       -5.58400000    -5.87100000    -7.86500000
H       -5.09500000    -6.13700000    -7.08600000
H       -4.97700000    -5.31000000    -8.34800000
O       -4.02800000     3.80400000     1.53700000
H       -3.39300000     3.29100000     1.03700000
H       -4.85700000     3.34100000     1.42000000
O       -5.92300000    -4.51100000    -4.45000000
H       -5.68700000    -4.27100000    -3.55400000
H       -6.85600000    -4.72200000    -4.40400000
O       -6.33300000     8.49300000    -8.70200000
H       -5.83200000     8.11100000    -7.98100000
H       -5.69100000     8.61800000    -9.40100000
O       -2.80500000   -11.56500000    -7.78000000
H       -2.41300000   -11.08500000    -7.05000000
H       -2.17000000   -12.25200000    -7.98500000
O      -12.23200000    -4.27100000     1.51000000
H      -12.79800000    -3.79900000     0.89900000
H      -12.83800000    -4.72400000     2.09700000
O      -11.20300000    -8.66300000     4.11700000
H      -10.46000000    -9.19800000     3.83900000
H      -11.95400000    -9.03800000     3.65600000
O       -7.73100000    -9.10500000    -3.65900000
H       -8.34600000    -8.52700000    -4.11100000
H       -7.35500000    -9.64600000    -4.35300000
O      -10.50600000   -10.27700000    -5.81800000
H      -11.17700000   -10.91500000    -5.57800000
H      -10.24400000   -10.52500000    -6.70400000
O        3.21000000    -3.39500000    -3.33700000
H        3.79400000    -3.43400000    -4.09400000
H        2.33300000    -3.49800000    -3.70400000
O       -2.38000000   -11.85000000   -11.78300000
H       -2.74800000   -11.48000000   -12.58500000
H       -1.72100000   -11.21300000   -11.50500000
O        8.68300000     4.65900000    11.19400000
H        7.94900000     4.35400000    11.72600000
H        9.07900000     5.36100000    11.71100000
O      -11.00000000    -4.56000000     4.80700000
H      -10.29000000    -5.10300000     4.46300000
H      -10.86000000    -3.70100000     4.40800000
O       -1.39100000    -4.89900000   -11.26100000
H       -0.91400000    -5.64600000   -10.90100000
H       -0.77500000    -4.16800000   -11.19800000
O       -4.31500000    -3.30700000   -13.95400000
H       -4.03300000    -2.62700000   -14.56600000
H       -4.40200000    -2.85300000   -13.11500000
O       -8.79800000    14.19400000    -7.03700000
H       -9.37300000    14.73000000    -6.49200000
H       -8.05700000    14.76500000    -7.24000000
O        0.64300000    -7.98000000    -5.44200000
H        0.62400000    -7.98000000    -4.48500000
H        1.54500000    -7.74600000    -5.66300000
O        1.16700000     5.73600000    -4.58800000
H        0.90100000     5.51200000    -5.47900000
H        0.79900000     5.03900000    -4.04500000
O        3.84100000     5.09700000    -0.74000000
H        4.65700000     5.21600000    -0.25500000
H        4.04700000     5.37900000    -1.63100000
O       -7.63900000     0.35600000    -0.32300000
H       -8.25500000     0.06900000     0.35100000
H       -7.28400000    -0.45700000    -0.68400000
O        7.16300000    -2.61100000    -5.73500000
H        7.20700000    -1.66000000    -5.82700000
H        7.82200000    -2.94300000    -6.34500000
O      -13.42000000   -12.75500000    -2.05000000
H      -13.32600000   -13.19400000    -2.89500000
H      -13.21500000   -11.83800000    -2.23100000
O       -5.19800000    -1.02900000     6.27300000
H       -5.08400000    -1.97900000     6.26100000
H       -4.77100000    -0.72600000     5.47100000
O       -9.11800000    -3.45800000    13.92400000
H       -8.31100000    -3.38300000    14.43200000
H       -9.80000000    -3.61600000    14.57700000
O       -4.85300000    -6.04800000   -11.48300000
H       -4.19600000    -5.98700000   -12.17600000
H       -4.40200000    -5.73900000   -10.69700000
O      -10.28900000     0.82800000     8.69900000
H      -10.43200000     1.30800000     7.88300000
H      -10.02500000     1.49900000     9.32800000
O      -12.08100000     1.86300000    -0.06600000
H      -11.46800000     2.51300000     0.27600000
H      -12.75100000     1.78300000     0.61300000
O       -5.02300000   -12.97100000    -5.26300000
H       -4.11000000   -12.80800000    -5.50000000
H       -4.98000000   -13.33700000    -4.38000000
O       -2.48000000    -5.20000000    -7.38500000
H       -2.07200000    -5.63600000    -8.13400000
H       -2.37800000    -5.81900000    -6.66200000
O        5.68600000    -0.03700000    -3.57100000
H        5.47400000     0.38000000    -2.73600000
H        4.83500000    -0.23600000    -3.96200000
O        3.25500000    -3.77900000    13.16800000
H        2.94400000    -3.71900000    12.26500000
H        4.20300000    -3.66500000    13.10400000
O       -9.93000000    -2.39400000     3.71600000
H       -9.16400000    -2.87600000     3.40400000
H      -10.30700000    -2.00600000     2.92600000
O      -10.52600000    -7.60100000     6.66600000
H      -10.62000000    -7.87500000     5.75300000
H      -10.53600000    -6.64500000     6.63200000
O        1.80300000    -5.75500000     7.48400000
H        1.13000000    -6.32900000     7.11800000
H        2.38800000    -6.34400000     7.96000000
O        2.33800000   -13.27700000     2.94300000
H        2.15000000   -12.42700000     3.34100000
H        1.59600000   -13.82800000     3.19100000
O      -10.63900000    10.05700000    -1.29600000
H       -9.81400000    10.48900000    -1.51900000
H      -11.12200000    10.70800000    -0.78800000
O       -8.91000000     0.26600000    -2.98600000
H       -9.52900000     0.78500000    -3.49900000
H       -9.00000000     0.60000000    -2.09300000
O       -1.55500000     1.58100000    -5.92500000
H       -1.61700000     1.34900000    -6.85100000
H       -2.21600000     2.26200000    -5.80300000
O       -6.49400000   -10.45400000    -5.81700000
H       -6.13300000   -10.13800000    -6.64500000
H       -6.01500000   -11.26400000    -5.64000000
O       -5.77400000    15.36600000     5.12500000
H       -5.87500000    14.72700000     4.42000000
H       -5.22300000    16.05300000     4.74900000
O       -9.09800000    11.58100000     1.35500000
H      -10.01900000    11.80900000     1.23000000
H       -8.74000000    11.53500000     0.46900000
O      -10.82400000    -6.55200000    -7.87100000
H      -11.39600000    -6.26100000    -7.16100000
H      -10.67300000    -5.76600000    -8.39600000
O        5.93500000    -6.47000000     3.42400000
H        5.49400000    -6.15200000     4.21200000
H        6.30000000    -5.68300000     3.01900000
O      -11.44900000    14.60300000    -0.04100000
H      -11.54300000    14.13900000    -0.87300000
H      -10.91800000    15.37100000    -0.25300000
O       -7.35000000     0.99700000   -13.86800000
H       -6.85800000     0.31400000   -13.41300000
H       -6.84600000     1.79700000   -13.71800000
O       -5.22400000   -11.70800000    -8.78800000
H       -4.37500000   -11.85700000    -8.37000000
H       -5.19600000   -12.23700000    -9.58500000
O       -5.97000000     1.80700000     1.18100000
H       -6.26700000     1.41800000     2.00300000
H       -6.59300000     1.48900000     0.52700000
O        9.94900000    -3.88300000     8.00500000
H        9.41000000    -4.45200000     8.55400000
H        9.35200000    -3.19300000     7.71400000
O       -2.00400000    -8.51300000     6.47600000
H       -1.72900000    -7.59900000     6.40500000
H       -1.54100000    -8.84300000     7.24600000
O       -1.00400000    -4.57300000    14.66700000
H       -0.27700000    -5.13300000    14.93900000
H       -0.64200000    -4.03800000    13.96000000
O        0.01100000    -7.47500000    13.61900000
H        0.23600000    -7.55000000    14.54600000
H       -0.84600000    -7.89500000    13.54500000
O        4.78000000     2.42900000    -7.63600000
H        4.63000000     3.20400000    -8.17600000
H        4.13400000     2.49700000    -6.93300000
O        9.93100000     0.72800000    -4.84200000
H       10.32000000    -0.00500000    -4.36400000
H       10.33200000     0.68900000    -5.71000000
O       -9.25400000    -3.04200000    -2.14300000
H       -9.48600000    -2.82300000    -1.24000000
H       -8.41100000    -2.61200000    -2.28400000
O       14.07500000   -12.22400000    -0.84900000
H       14.19400000   -11.86900000     0.03200000
H       14.96400000   -12.36500000    -1.17400000
O        0.35100000    -6.73000000    -0.85900000
H        0.51000000    -7.45000000    -1.46900000
H        1.22400000    -6.46400000    -0.57000000
O       -1.05400000    13.15500000    -3.22400000
H       -1.38400000    13.04500000    -2.33200000
H       -1.78300000    13.55100000    -3.70200000
O      -13.79600000     3.22000000    15.02000000
H      -13.09100000     3.50600000    15.60000000
H      -13.34900000     2.77800000    14.29900000
O      -12.52000000    -1.15900000    -2.91200000
H      -12.02900000    -1.27400000    -2.09800000
H      -12.60300000    -0.21000000    -3.00900000
O      -10.91500000    -3.62000000    -4.23800000
H      -11.63800000    -3.00900000    -4.10100000
H      -10.30900000    -3.44000000    -3.51800000
O      -12.52600000   -12.32300000    -4.94300000
H      -13.07500000   -11.58500000    -5.21000000
H      -13.11400000   -13.07800000    -4.96200000
O      -11.97600000     1.49800000    -2.83300000
H      -12.02100000     1.56800000    -1.87900000
H      -11.88700000     2.40200000    -3.13600000
O        0.71500000    -2.52900000    13.59600000
H        1.55200000    -2.98900000    13.66900000
H        0.91700000    -1.62500000    13.83800000
O       -5.50100000     1.33900000   -10.55500000
H       -5.23000000     1.20700000    -9.64600000
H       -5.09000000     2.16500000   -10.81000000
O       -6.95100000     3.69200000     2.84100000
H       -7.18300000     2.98500000     3.44300000
H       -6.75400000     3.24900000     2.01600000
O       -6.97600000   -13.54100000    -0.36600000
H       -6.80900000   -12.78800000    -0.93300000
H       -6.41100000   -13.39800000     0.39500000
O       -2.66600000     8.84700000   -10.39700000
H       -3.42500000     8.33100000   -10.66800000
H       -1.92100000     8.41400000   -10.81300000
O      -11.14000000    13.67500000    -8.31900000
H      -11.46300000    14.53000000    -8.60400000
H      -10.25600000    13.84700000    -7.99700000
O      -12.87300000     7.53900000     3.43100000
H      -12.15400000     7.21700000     2.88900000
H      -12.68900000     8.47100000     3.54600000
O        3.99500000    -6.24500000    -8.46000000
H        4.91300000    -6.21400000    -8.18900000
H        3.84900000    -7.15700000    -8.70900000
O       -9.19300000     1.48600000   -10.11700000
H       -8.40100000     1.05000000   -10.43100000
H       -9.37800000     1.06900000    -9.27500000
O        0.63900000    -2.94100000   -10.70600000
H        1.45900000    -3.41800000   -10.58300000
H        0.46800000    -2.53300000    -9.85600000
O       -8.26100000    -4.18300000     2.48300000
H       -7.32500000    -4.38000000     2.44500000
H       -8.66500000    -4.99400000     2.79200000
O       -5.89400000     5.13800000     7.67100000
H       -5.12900000     4.80400000     7.20100000
H       -5.64900000     6.02800000     7.92600000
O       -6.10800000     5.82400000   -12.83000000
H       -6.71300000     5.18600000   -12.45200000
H       -6.22400000     6.61000000   -12.29600000
O       -1.55200000   -14.02800000    -9.30400000
H       -0.73500000   -14.04900000    -8.80700000
H       -1.27800000   -14.08200000   -10.22000000
O       -6.86500000     2.73000000    -4.74500000
H       -6.88400000     3.64800000    -5.01800000
H       -6.99900000     2.75900000    -3.79800000
O       -3.13500000    -5.72100000   -13.61100000
H       -3.52300000    -4.89000000   -13.88300000
H       -2.19100000    -5.56600000   -13.63700000
O       -0.94100000     6.11400000     5.43600000
H       -1.81400000     5.92800000     5.78000000
H       -0.88200000     5.58900000     4.63700000
O       -6.21400000     0.23500000    -3.91700000
H       -7.09700000     0.08000000    -3.58000000
H       -6.26600000     1.09400000    -4.33700000
O       10.78000000     0.98500000     1.16600000
H       11.59900000     0.86000000     0.68700000
H       10.83500000     0.37200000     1.89900000
O       -0.26400000    -9.56200000    -7.69300000
H        0.29200000   -10.33800000    -7.76200000
H        0.27200000    -8.92300000    -7.22300000
O       -0.25500000     3.78200000    14.41300000
H        0.02800000     4.65700000    14.14400000
H        0.26500000     3.59100000    15.19300000
O       -7.26800000    -1.34000000    12.33900000
H       -7.49600000    -1.85700000    13.11200000
H       -6.57000000    -0.75700000    12.63600000
O        3.81000000     4.05300000    15.11300000
H        4.17800000     3.17100000    15.06200000
H        4.50200000     4.62200000    14.77600000
O       12.45700000    -2.11100000    -1.77800000
H       11.97200000    -2.93100000    -1.69100000
H       13.32000000    -2.37500000    -2.09700000
O        4.80800000    -3.63900000    -5.61000000
H        5.71100000    -3.33000000    -5.68800000
H        4.29300000    -3.00300000    -6.10700000
O       -1.32000000    -2.55200000    -6.11800000
H       -2.03800000    -2.14500000    -5.63200000
H       -1.60500000    -3.45500000    -6.25500000
O      -10.56400000   -14.62200000    -5.27700000
H      -10.04200000   -14.26300000    -4.56000000
H      -11.28800000   -14.00400000    -5.38000000
O      -11.79800000     0.69500000    -6.43400000
H      -12.39600000     0.82200000    -7.17000000
H      -12.27000000     0.11500000    -5.83800000
O       -1.50400000    -4.34400000     0.99200000
H       -0.87800000    -3.63000000     1.11200000
H       -0.98500000    -5.05700000     0.61700000
O       13.80600000    -7.84000000     0.68800000
H       13.59900000    -8.25200000    -0.15000000
H       12.98200000    -7.44100000     0.96900000
O       -8.64500000    -2.06200000     6.37300000
H       -9.23200000    -1.95600000     5.62400000
H       -8.18800000    -1.22400000     6.44000000
O      -12.80200000   -12.15900000     0.59100000
H      -13.01000000   -12.57700000    -0.24500000
H      -12.23700000   -11.42200000     0.35600000
O        5.35800000   -13.40000000    -0.03500000
H        6.24900000   -13.52700000    -0.36100000
H        5.33200000   -12.48300000     0.24000000
O       -2.04300000     3.59900000    -9.71800000
H       -2.17000000     3.88600000    -8.81400000
H       -1.11000000     3.73500000    -9.88400000
O       -3.78800000    -1.36100000    -4.79800000
H       -3.50300000    -1.40600000    -3.88600000
H       -4.52700000    -0.75300000    -4.78900000
O       -9.70700000     2.00500000   -13.18500000
H       -8.79800000     1.80900000   -12.95600000
H       -9.90100000     1.41900000   -13.91600000
O       -9.03500000   -13.29600000    -3.59000000
H       -8.28700000   -12.70100000    -3.54600000
H       -9.79400000   -12.74200000    -3.40600000
O       -0.95900000    -5.29000000    -4.39700000
H       -1.91000000    -5.36400000    -4.47900000
H       -0.61900000    -6.07300000    -4.83100000
O       -1.15500000     1.40100000     5.48600000
H       -1.61300000     1.01400000     4.74000000
H       -0.84300000     2.24700000     5.16200000
O        2.96800000    -9.81400000   -14.09500000
H        2.05600000    -9.54600000   -13.97900000
H        3.20200000   -10.23300000   -13.26600000
O       -8.91400000    -2.83600000   -11.30300000
H       -9.73400000    -2.34300000   -11.34000000
H       -8.27600000    -2.21400000   -10.95400000
O        5.78900000    -2.63200000     3.17200000
H        6.33500000    -3.34500000     2.84100000
H        5.91500000    -1.92100000     2.54300000
O        1.10000000    -3.84500000    -4.84700000
H        0.31100000    -4.23400000    -4.47000000
H        1.33700000    -4.43000000    -5.56600000
O       -3.11600000    -2.65100000   -11.28900000
H       -3.40000000    -2.62900000   -10.37600000
H       -2.71200000    -3.51200000   -11.39500000
O       -4.39300000     3.58500000    -2.11100000
H       -5.32500000     3.42200000    -1.96800000
H       -4.31200000     4.53900000    -2.10600000
O        1.80600000     5.97500000     1.54000000
H        2.54500000     5.38100000     1.40900000
H        1.72400000     6.44400000     0.70900000
O       -8.61400000   -10.71400000    -8.15100000
H       -8.17200000   -10.43100000    -7.35100000
H       -8.21900000   -10.18400000    -8.84400000
O        2.82600000    -3.92100000    10.28500000
H        2.05500000    -4.38400000     9.95700000
H        3.56300000    -4.33700000     9.83900000
O        5.99700000     2.22500000   -12.94300000
H        6.35400000     3.09900000   -13.10200000
H        5.40900000     2.33800000   -12.19700000
O       12.15700000    -1.50500000     2.10100000
H       12.50500000    -2.09100000     2.77300000
H       11.47500000    -2.01700000     1.66600000
O       13.48600000    -3.65700000    -4.78800000
H       13.90000000    -3.41700000    -3.95900000
H       13.90600000    -3.09400000    -5.43800000
O       -0.09700000    11.97700000    -5.56200000
H       -0.16000000    12.23300000    -4.64100000
H       -0.14900000    11.02100000    -5.54900000
O       -8.56400000    -5.35100000    -4.76100000
H       -9.34200000    -4.79600000    -4.81800000
H       -8.80300000    -6.14900000    -5.23300000
O        2.97800000    -4.39600000   -10.08900000
H        3.56800000    -3.65200000    -9.96400000
H        3.23000000    -5.01900000    -9.40800000
O       -9.10100000     4.75700000    -3.93200000
H       -9.76400000     5.00200000    -3.28700000
H       -9.57300000     4.22100000    -4.56900000
O       -4.46300000    -9.75500000    -3.34400000
H       -4.54900000    -9.08400000    -4.02200000
H       -3.61600000    -9.57700000    -2.93600000
O       -6.62300000     8.87200000    -1.24300000
H       -5.83200000     9.34200000    -1.50700000
H       -7.34200000     9.40600000    -1.58000000
O       -6.99400000    -0.79100000   -10.14200000
H       -6.31200000    -0.17700000   -10.41300000
H       -7.07000000    -0.66400000    -9.19600000
O       -6.40400000     5.41600000    -2.77200000
H       -7.30400000     5.09100000    -2.80700000
H       -6.49500000     6.36300000    -2.66400000
O       -6.49000000    14.95800000    -9.70900000
H       -5.73600000    15.22400000   -10.23600000
H       -6.33400000    15.35400000    -8.85200000
O      -10.95800000    12.66400000    -4.47600000
H      -10.02300000    12.45600000    -4.47400000
H      -10.99600000    13.59500000    -4.69400000
O        2.86100000    -8.79500000    -8.10900000
H        3.77800000    -8.98000000    -8.31100000
H        2.37200000    -9.18500000    -8.83300000
O        9.82500000    -7.16200000    -5.81900000
H        9.93500000    -7.86100000    -6.46400000
H       10.50300000    -6.52400000    -6.03900000
O       -5.34600000    -2.75000000    -6.55300000
H       -4.59200000    -2.31400000    -6.15600000
H       -5.71800000    -3.27800000    -5.84700000
O        2.84500000    -3.25900000     6.64400000
H        2.58200000    -4.09500000     7.02800000
H        2.02800000    -2.76900000     6.55100000
O        1.41100000   -10.96300000     4.61900000
H        2.11400000   -10.31300000     4.61600000
H        1.20100000   -11.08500000     5.54500000
O       -3.35100000    -6.46500000     9.17800000
H       -3.07600000    -7.09800000     9.84200000
H       -3.06500000    -5.61900000     9.52200000
O        3.34300000    -5.95600000     2.58700000
H        3.19900000    -5.14100000     3.06800000
H        4.25900000    -6.17600000     2.75600000
O       -7.17200000    -4.88700000   -12.52700000
H       -6.29700000    -5.19700000   -12.29500000
H       -7.62600000    -4.79800000   -11.68900000
O       -7.52900000    -5.03800000    12.06000000
H       -7.91700000    -4.44100000    12.70000000
H       -7.12700000    -4.46400000    11.40900000
O       -1.50800000    -6.23200000     3.35300000
H       -2.42400000    -6.11900000     3.60900000
H       -1.27800000    -5.41200000     2.91600000
O       12.13700000    -1.10200000    -7.85300000
H       11.21700000    -0.86800000    -7.97500000
H       12.53500000    -0.31800000    -7.47500000
O       -9.60400000    -4.75500000     7.11500000
H      -10.50800000    -4.50800000     7.30900000
H       -9.11400000    -3.93500000     7.17000000
O        0.70300000    -0.94600000     7.08000000
H       -0.06700000    -0.38000000     7.02400000
H        0.74900000    -1.19800000     8.00200000
O       -9.62000000    -8.74100000    -9.88900000
H       -9.05800000    -7.99900000   -10.11200000
H       -9.86900000    -8.58800000    -8.97700000
O        6.50400000     6.29900000     7.23400000
H        6.53400000     7.25300000     7.16000000
H        6.22100000     6.00100000     6.37000000
O        1.20300000    -1.80800000     9.89800000
H        1.95600000    -2.21100000    10.33000000
H        0.51200000    -2.46900000     9.95400000
O        5.31200000    -1.91000000     7.09100000
H        4.57000000    -1.88500000     7.69400000
H        5.03800000    -1.36900000     6.35000000
O        8.59100000    -3.31600000   -11.08800000
H        7.69900000    -2.97000000   -11.10600000
H        9.11600000    -2.64800000   -11.52900000
O       -7.11600000    11.43600000     9.28200000
H       -6.46700000    11.63800000     8.60800000
H       -7.92300000    11.26900000     8.79500000
O        3.42100000     0.17900000     6.29700000
H        3.84400000     0.60000000     7.04600000
H        2.52900000     0.00000000     6.59500000
O       -0.02000000     0.57300000     9.52600000
H        0.63500000     1.12700000     9.10100000
H        0.49100000    -0.09400000     9.98400000
O        5.13100000     2.82200000     2.82800000
H        5.86100000     3.42500000     2.68900000
H        5.26900000     2.47700000     3.71000000
O        2.72700000    -5.57700000     0.10200000
H        3.21200000    -4.75200000     0.10400000
H        2.76700000    -5.88100000     1.00900000
O        2.06300000   -10.30100000   -10.73500000
H        2.32700000   -11.16400000   -10.41600000
H        1.33700000   -10.47900000   -11.33400000
O       -2.85300000    -1.54200000     9.05200000
H       -2.20000000    -1.43500000     8.36000000
H       -3.16800000    -0.65500000     9.22400000
O       -5.69600000    -9.84300000     2.25000000
H       -6.51800000    -9.82600000     1.76000000
H       -5.96500000    -9.88200000     3.16800000
O       -4.71100000    -4.70500000    -1.83100000
H       -4.15500000    -5.47700000    -1.93900000
H       -4.81300000    -4.61400000    -0.88300000
O       -3.47600000    -3.93700000    10.20400000
H       -3.22100000    -3.10400000     9.80600000
H       -4.24200000    -4.21700000     9.70300000
O       13.83500000    -7.32000000   -12.14100000
H       13.87400000    -7.61400000   -11.23100000
H       14.54400000    -7.79500000   -12.57600000
O       -2.16400000    -8.49600000    11.42700000
H       -2.77400000    -7.79200000    11.64500000
H       -2.70600000    -9.16000000    11.00100000
O        7.07800000    -5.20500000    15.05500000
H        7.96400000    -5.56500000    15.00200000
H        6.50400000    -5.96000000    14.93000000
O        2.84100000    -8.79100000     3.92300000
H        3.74400000    -8.97200000     3.66000000
H        2.79000000    -7.83600000     3.96600000
O        0.90000000     4.81500000    10.43700000
H        0.59200000     4.24600000    11.14200000
H        1.85400000     4.79800000    10.51400000
O       -2.68600000     3.24600000     4.04600000
H       -3.39600000     3.19500000     3.40600000
H       -2.03600000     3.81800000     3.63800000
O        6.58100000    -4.49900000    -0.87100000
H        5.80600000    -4.07700000    -0.50000000
H        6.70400000    -4.07300000    -1.71900000
O      -11.95300000    -1.71900000    11.18000000
H      -11.46100000    -1.86700000    10.37300000
H      -12.26400000    -2.58800000    11.43500000
O       -0.31600000    14.64700000    12.27200000
H        0.37700000    15.18000000    11.88100000
H       -0.65800000    15.18500000    12.98600000
O       -9.32200000     9.02800000   -14.34700000
H       -8.90100000     9.27700000   -13.52400000
H       -8.61200000     8.67300000   -14.88100000
O      -11.96800000     3.67600000   -12.99600000
H      -11.83900000     4.62400000   -12.96700000
H      -11.12300000     3.32700000   -13.27700000
O       -9.33200000    -6.41700000     3.82300000
H       -8.73300000    -6.71300000     4.50900000
H       -9.80700000    -7.20600000     3.56300000
O       -9.08500000    -8.32800000     8.74700000
H       -9.13200000    -9.28400000     8.73200000
H       -9.73800000    -8.04500000     8.10800000
O      -11.44100000    -1.81000000   -11.15400000
H      -12.27400000    -2.17800000   -10.85700000
H      -11.53400000    -0.86700000   -11.01800000
O       -2.91600000   -12.30400000    11.22600000
H       -3.10100000   -12.25000000    12.16300000
H       -3.32100000   -11.52000000    10.85500000
O      -11.52300000    -4.98900000    12.71800000
H      -11.28700000    -5.87500000    12.44400000
H      -10.89800000    -4.77700000    13.41100000
O        5.12000000   -10.75500000     0.59800000
H        5.61200000   -10.09100000     0.11500000
H        4.26800000   -10.78600000     0.16300000
O       -5.84600000    15.09700000     8.07500000
H       -5.06100000    15.64200000     8.12500000
H       -5.82800000    14.73000000     7.19100000
O       -4.70600000     2.33000000    11.80700000
H       -4.38300000     1.79200000    11.08300000
H       -4.46100000     3.22400000    11.56900000
O       -9.30000000    -8.03100000    13.53600000
H       -8.72300000    -7.80800000    12.80600000
H       -8.76600000    -7.88500000    14.31700000
O       -5.97300000    -4.49200000     8.97400000
H       -6.63100000    -3.89900000     9.33700000
H       -6.45900000    -5.28800000     8.75800000
O      -12.36000000    -5.40400000    -1.77400000
H      -12.87100000    -4.78300000    -1.25600000
H      -13.01200000    -5.98500000    -2.16400000
O       -4.87600000   -12.82900000   -11.01700000
H       -5.42600000   -12.75800000   -11.79800000
H       -4.02200000   -12.49800000   -11.29500000
O        0.56100000    10.95800000    11.85700000
H       -0.17400000    10.40500000    11.59300000
H        1.09400000    11.04200000    11.06600000
O       -7.84100000    -7.45200000    11.11200000
H       -8.32200000    -7.56600000    10.29300000
H       -7.72200000    -6.50600000    11.19100000
O       -0.68500000    -3.77200000    10.57100000
H       -1.52300000    -3.90600000    10.12900000
H       -0.38600000    -4.65400000    10.79100000
O        9.77200000    -8.52200000     2.71700000
H        8.83300000    -8.56200000     2.53500000
H       10.18600000    -8.85100000     1.91900000
O       -9.83900000    -3.12300000     0.68900000
H      -10.60300000    -3.54300000     1.08300000
H       -9.08900000    -3.56900000     1.08400000
O        1.30900000     3.25400000     4.22100000
H        1.47400000     3.94200000     3.57500000
H        1.67100000     2.46200000     3.82500000
O       -3.57300000   -13.17800000     7.93500000
H       -3.19800000   -13.29700000     8.80800000
H       -2.82300000   -12.97200000     7.37700000
O      -10.62200000   -12.55700000     8.16300000
H       -9.95100000   -12.00500000     8.56600000
H      -11.24200000   -11.93800000     7.77900000
O       -7.19400000     1.95200000    -7.36500000
H       -7.38100000     1.02200000    -7.24000000
H       -7.16300000     2.31300000    -6.47900000
O       -5.45000000     0.25300000    13.56200000
H       -5.02700000     1.01800000    13.17100000
H       -5.93600000     0.60300000    14.30900000
O      -13.22100000   -13.96600000    14.50700000
H      -12.42100000   -13.52000000    14.78500000
H      -13.88800000   -13.27900000    14.49900000
O       -2.26500000    -2.37800000     4.52900000
H       -2.76700000    -3.16800000     4.33200000
H       -2.34400000    -1.84100000     3.74000000
O      -11.95700000    13.36400000    14.14100000
H      -11.73000000    13.17000000    13.23100000
H      -12.09100000    14.31100000    14.15800000
O       -6.17300000     4.68700000    14.44400000
H       -5.93600000     4.17300000    15.21600000
H       -6.76800000     5.35900000    14.77600000
O       -4.18400000   -10.08200000    10.27700000
H       -5.08300000   -10.01900000    10.60000000
H       -4.27400000   -10.12800000     9.32500000
O       -6.83700000    -3.18400000    15.08800000
H       -5.88900000    -3.05400000    15.09600000
H       -7.00600000    -3.77000000    15.82600000
O       -7.58500000    -6.34500000     8.11000000
H       -7.99200000    -7.20300000     8.22800000
H       -8.09800000    -5.92900000     7.41700000
O       -9.03700000   -12.10600000    15.22300000
H       -9.59300000   -12.17800000    15.99800000
H       -9.52100000   -12.56400000    14.53600000
O       13.93800000   -14.68700000    12.93900000
H       14.30800000   -13.94300000    13.41400000
H       14.46300000   -14.74800000    12.14100000
O        3.83100000   -11.06100000     7.92100000
H        3.86300000   -11.97500000     8.20500000
H        4.34100000   -11.04400000     7.11100000
O       -0.33800000   -12.94800000     9.89900000
H        0.30300000   -13.04100000    10.60400000
H       -1.10500000   -12.56200000    10.32200000
O       -5.77600000    -3.76000000     6.37200000
H       -6.70000000    -3.60300000     6.17800000
H       -5.76800000    -4.04800000     7.28500000
O       -6.80700000     2.56100000     9.16100000
H       -5.92700000     2.47600000     9.52700000
H       -7.02100000     3.48900000     9.26200000
O       -7.78500000    -6.58600000    -9.04300000
H       -8.35400000    -5.83400000    -8.87800000
H       -7.02700000    -6.44300000    -8.47700000
O        6.06900000    -4.95200000   -12.41500000
H        6.53700000    -5.57500000   -11.86000000
H        6.54900000    -4.96100000   -13.24400000
O      -10.10100000     4.26100000    -7.93800000
H       -9.70400000     5.10600000    -7.72500000
H       -9.58700000     3.93400000    -8.67600000
O      -14.11800000    14.54100000   -13.21200000
H      -13.81800000    15.05300000   -13.96300000
H      -13.95800000    13.63100000   -13.46200000
O       -8.08700000   -10.02200000     1.04200000
H       -8.56900000    -9.47000000     0.42700000
H       -8.71400000   -10.20700000     1.74100000
O        0.25500000    -6.31300000    10.90400000
H       -0.45900000    -6.94600000    10.97500000
H        0.72600000    -6.38800000    11.73400000
O        1.15600000     2.24300000    -7.51600000
H        0.45100000     1.94900000    -8.09400000
H        0.71400000     2.48500000    -6.70200000
O      -13.37900000    -4.93100000    10.77700000
H      -12.67000000    -5.05500000    11.40800000
H      -12.94300000    -4.62400000     9.98300000
O        0.44700000   -14.43100000    -1.20000000
H        1.11200000   -15.08100000    -0.97100000
H        0.59200000   -13.71200000    -0.58600000
O        9.03100000     4.78800000     6.98100000
H        9.28900000     3.90400000     7.24300000
H        8.17600000     4.92000000     7.39200000
O       -0.60000000     3.60300000    -3.68900000
H       -0.62500000     3.55100000    -2.73400000
H       -0.70900000     2.69700000    -3.98100000
O       -9.88100000   -10.58600000    12.44400000
H      -10.80900000   -10.45100000    12.25300000
H       -9.64700000    -9.86200000    13.02400000
O      -10.42800000    -1.83100000     8.91600000
H      -10.46900000    -0.88500000     9.05800000
H      -10.11200000    -1.92400000     8.01700000
O        6.54600000   -12.31300000     9.87700000
H        6.19900000   -12.47600000     9.00000000
H        6.44700000   -13.14800000    10.33400000
O       -0.36300000     8.55100000    -4.26300000
H       -0.17500000     9.01600000    -5.07900000
H       -0.24000000     7.62700000    -4.48000000
O        7.29700000     3.21900000     9.37900000
H        7.18700000     2.43400000     9.91600000
H        7.72000000     3.85000000     9.96000000
O       -5.28000000     2.67200000   -13.78500000
H       -4.51500000     2.29700000   -14.22100000
H       -4.91800000     3.16900000   -13.05100000
O       -5.35300000    13.23500000    10.54300000
H       -5.53900000    12.98500000     9.63800000
H       -4.60600000    13.83000000    10.47900000
O       -7.78500000    -2.77700000     9.96500000
H       -8.62600000    -2.45600000     9.63700000
H       -7.43600000    -2.05100000    10.48100000
O      -14.82900000    -5.78400000     5.94200000
H      -15.11300000    -6.58700000     6.37800000
H      -15.01500000    -5.08900000     6.57300000
O       -3.63100000    -4.66200000     4.32600000
H       -4.24500000    -5.32000000     4.00100000
H       -3.78300000    -4.63700000     5.27100000
O       -0.60900000     6.34300000   -13.37800000
H       -1.47900000     6.62800000   -13.65700000
H       -0.14700000     6.14900000   -14.19300000
O       -4.21900000    -4.62500000     0.92600000
H       -3.28600000    -4.43200000     0.83200000
H       -4.24900000    -5.40300000     1.48200000
O      -11.43900000    -7.40100000    11.61500000
H      -10.63900000    -7.92000000    11.69900000
H      -11.58500000    -7.33700000    10.67100000
O        4.83200000     1.15700000    -1.34200000
H        5.59100000     1.10900000    -0.76100000
H        4.29800000     0.39900000    -1.10300000
O      -14.00500000    -0.41200000    15.21000000
H      -13.45700000     0.35200000    15.02800000
H      -14.04700000    -0.45500000    16.16500000
O       -3.65000000    -1.39800000    14.45500000
H       -4.29000000    -0.85100000    14.00000000
H       -3.09200000    -1.74500000    13.75900000
O       13.43700000   -13.27500000     3.34300000
H       13.38000000   -14.19900000     3.58700000
H       13.38300000   -12.80400000     4.17500000
O        1.96700000     2.02200000     8.20100000
H        1.81100000     2.94500000     8.40200000
H        2.86700000     1.99600000     7.87700000
O       11.93400000    -2.68400000   -12.56800000
H       11.92500000    -2.10900000   -11.80200000
H       12.63800000    -3.30800000   -12.39300000
O        0.83800000   -11.28100000   -12.93600000
H        1.39700000   -12.05700000   -12.97400000
H        0.49300000   -11.19000000   -13.82400000
O      -14.12100000   -11.17400000     9.53100000
H      -14.44000000   -12.05100000     9.32000000
H      -13.35800000   -11.05300000     8.96500000
O       -1.10300000     5.12800000     2.82100000
H       -1.17600000     5.93300000     2.30800000
H       -0.29100000     4.72200000     2.51600000
O       -4.47700000    -7.41400000     1.49800000
H       -4.45200000    -8.26800000     1.93000000
H       -4.85500000    -7.59200000     0.63700000
O        0.91500000    13.05300000     6.50100000
H        0.46500000    12.35500000     6.02500000
H        0.30200000    13.30700000     7.19000000
O        0.56200000   -10.40300000    11.68600000
H       -0.13300000    -9.74500000    11.69700000
H        0.79500000   -10.49100000    10.76200000
O       -5.61800000    -6.50800000    13.82800000
H       -6.19400000    -6.41500000    13.06900000
H       -4.80900000    -6.06600000    13.57100000
O       -7.04900000    -7.49500000     5.30700000
H       -7.07200000    -8.45100000     5.28000000
H       -6.20900000    -7.28600000     5.71700000
O        1.90300000    15.35200000    -8.75100000
H        1.75400000    14.61700000    -8.15500000
H        1.62000000    15.02800000    -9.60600000
O       -5.16600000    12.63700000    -9.02800000
H       -6.06300000    12.85500000    -9.28200000
H       -4.62800000    12.95100000    -9.75500000
O        3.43300000    14.80400000    13.90000000
H        2.94700000    13.98600000    13.79700000
H        3.73400000    14.79200000    14.80900000
O      -13.87400000    -8.53800000    -4.78800000
H      -14.34700000    -8.27100000    -5.57600000
H      -13.07500000    -8.01100000    -4.79700000
O       -3.84400000     8.31500000     6.35400000
H       -3.81100000     7.36700000     6.47700000
H       -4.47500000     8.44300000     5.64500000
O       -3.90900000    11.11500000    -7.10400000
H       -4.10200000    11.59700000    -6.30100000
H       -4.23600000    11.67800000    -7.80600000
O      -12.32100000     4.19100000    -3.45300000
H      -11.81200000     4.73800000    -2.85500000
H      -11.94100000     4.36100000    -4.31500000
O       -1.02900000     0.94000000    -8.63800000
H       -0.87800000     0.00200000    -8.75200000
H       -1.61300000     1.17800000    -9.35800000
O      -12.82800000    -9.91500000    -2.33900000
H      -13.30400000    -9.57400000    -3.09600000
H      -13.15200000    -9.40100000    -1.60000000
O       -5.27400000    13.47800000    -5.81300000
H       -5.57400000    13.47000000    -6.72100000
H       -5.84900000    14.10600000    -5.37600000
O       -3.26800000     5.79600000     6.84200000
H       -3.37500000     4.92300000     6.46500000
H       -2.65400000     5.67100000     7.56700000
O       13.05700000    11.29800000    -2.22400000
H       13.25300000    12.13900000    -1.81100000
H       12.10300000    11.28600000    -2.30400000
O       -1.13600000    -7.85300000   -11.95900000
H       -1.92800000    -7.39000000   -12.23500000
H       -1.44500000    -8.49800000   -11.32300000
O       -9.99600000    14.92800000     3.81500000
H       -9.86200000    15.07700000     4.75100000
H      -10.38100000    15.74400000     3.49500000
O       -4.49000000     5.27500000    -8.31900000
H       -5.14000000     4.92200000    -8.92600000
H       -5.00100000     5.78600000    -7.69100000
O       -1.90500000    -9.46600000    -9.76500000
H       -1.31300000    -9.47500000    -9.01300000
H       -2.59800000   -10.08400000    -9.53200000
O      -11.66900000    10.01300000     4.93900000
H      -10.79000000     9.63700000     4.89400000
H      -11.57900000    10.88100000     4.54600000
O      -14.95800000     6.88600000    -9.73000000
H      -14.06500000     6.56300000    -9.84600000
H      -15.50600000     6.24500000   -10.18400000
O        0.76500000    11.29000000    -9.68300000
H        0.64500000    10.50800000   -10.22300000
H       -0.07600000    11.40700000    -9.24000000
O       -0.77800000     5.73700000    -1.23800000
H       -0.53500000     6.62400000    -1.50400000
H        0.04900000     5.32700000    -0.98400000
O        2.61200000     6.88000000     7.02100000
H        2.11700000     7.60700000     7.39900000
H        2.20900000     6.09600000     7.39400000
O       -2.15300000    10.38100000     7.47400000
H       -2.50800000     9.66200000     6.95100000
H       -1.66900000    10.91700000     6.84600000
O      -10.31800000     7.89800000     2.15600000
H       -9.71900000     8.64400000     2.18700000
H       -9.78500000     7.15200000     2.43200000
O       -9.19800000     6.80500000    -7.66400000
H       -8.54200000     7.18800000    -7.08200000
H      -10.01400000     6.84300000    -7.16500000
O        2.48900000    13.08000000    -6.68900000
H        1.64300000    12.69700000    -6.45900000
H        2.87600000    12.45700000    -7.30400000
O      -12.68600000     4.19500000    -8.90500000
H      -13.33300000     4.03400000    -8.21700000
H      -11.84100000     4.06000000    -8.47600000
O       -0.69000000    14.19000000    -7.05700000
H       -0.24000000    13.55500000    -6.50100000
H       -1.02900000    13.67200000    -7.78700000
O        9.32300000    10.12400000    -0.32300000
H        9.90100000     9.39100000    -0.53100000
H        9.55300000    10.80000000    -0.96100000
O       -8.50000000     4.31200000   -12.04900000
H       -9.09200000     4.92700000   -12.48200000
H       -8.99900000     3.49700000   -11.99400000
O       -9.14400000    12.79600000    15.51000000
H       -9.74000000    12.95900000    14.77800000
H       -9.63400000    12.21700000    16.09400000
O        1.44100000     4.47500000     6.81400000
H        1.50800000     3.76400000     6.17700000
H        0.69800000     4.99800000     6.51300000
O       -7.73100000     8.49700000   -11.03700000
H       -7.42300000     9.26000000   -11.52500000
H       -7.35000000     8.60000000   -10.16500000
O       -4.62000000     8.88600000     2.68900000
H       -5.36800000     8.61500000     3.22100000
H       -4.48200000     8.15900000     2.08100000
O        0.44900000    10.50900000    -0.41500000
H        1.25000000    10.61900000    -0.92700000
H        0.08500000     9.67600000    -0.71500000
O       -5.82900000    -9.15400000    -8.68100000
H       -6.14500000    -8.92100000    -9.55400000
H       -5.57700000   -10.07400000    -8.75400000
O      -10.72300000     5.55500000    -1.86000000
H      -11.15200000     6.36400000    -1.58300000
H       -9.96200000     5.47800000    -1.28400000
O      -11.74900000     0.89200000   -11.21900000
H      -11.36000000     1.55000000   -11.79500000
H      -11.19600000     0.90000000   -10.43800000
O      -10.81700000     3.18900000    -5.50000000
H      -10.76500000     3.57000000    -6.37600000
H      -11.40400000     2.44000000    -5.59800000
O       -3.83200000    14.77100000    -0.33000000
H       -3.03600000    14.43000000     0.07800000
H       -4.16700000    15.41400000     0.29600000
O       -3.72500000    14.83200000   -13.67500000
H       -3.85200000    14.50900000   -14.56700000
H       -4.27000000    15.61800000   -13.62500000
O       -4.83200000    -0.25600000     3.50400000
H       -5.29000000    -1.09300000     3.42400000
H       -4.05900000    -0.35100000     2.94800000
O       -8.29100000    10.27500000    -7.40500000
H       -7.68200000     9.79200000    -7.96300000
H       -8.94400000    10.62700000    -8.01000000
O      -14.21500000     3.18600000   -11.35900000
H      -13.62100000     3.24100000   -10.61000000
H      -13.69000000     3.47700000   -12.10400000
O       -8.08300000    11.46400000    -1.41200000
H       -8.23500000    12.40000000    -1.28400000
H       -7.13500000    11.36200000    -1.32800000
O       -5.02700000    10.91300000    -2.91400000
H       -4.93500000    11.61200000    -2.26600000
H       -5.46500000    11.33100000    -3.65600000
O       -2.14000000   -12.54000000    -4.82100000
H       -1.36200000   -13.03600000    -4.56500000
H       -2.35700000   -12.01800000    -4.04900000
O       -4.09000000     7.68000000   -12.48400000
H       -4.12500000     6.79600000   -12.85000000
H       -4.56200000     8.22100000   -13.11700000
O      -14.38100000     0.15100000   -11.99600000
H      -15.01000000     0.86200000   -11.87700000
H      -13.53000000     0.55100000   -11.81900000
O        0.85700000     9.29100000    -6.49000000
H        0.91800000     9.18100000    -7.43900000
H        1.76100000     9.41800000    -6.20400000
O       -7.31800000     1.04500000     3.79800000
H       -7.61500000     1.01400000     4.70700000
H       -6.54100000     0.48600000     3.77900000
O      -10.63100000     7.97000000    -3.52400000
H      -11.17000000     8.42000000    -2.87300000
H       -9.94000000     8.59700000    -3.73800000
O       -3.36600000     8.66700000    -3.20400000
H       -3.08200000     8.66100000    -4.11800000
H       -4.04600000     9.34000000    -3.16800000
O      -11.68800000     7.75700000    -0.25500000
H      -11.35100000     8.51300000    -0.73600000
H      -11.17800000     7.74000000     0.55500000
O        5.09000000   -11.56000000   -13.01100000
H        5.43700000   -12.24400000   -13.58400000
H        4.22900000   -11.88400000   -12.74600000
O       13.18100000   -12.17000000     5.72200000
H       12.37900000   -12.38300000     6.20000000
H       13.43300000   -11.30600000     6.04700000
O        4.22500000    14.31000000    -5.12200000
H        3.68600000    14.69800000    -4.43300000
H        3.60200000    14.07000000    -5.80800000
O      -14.00400000   -14.59700000    11.30800000
H      -13.21900000   -14.52600000    10.76500000
H      -13.75400000   -14.20300000    12.14400000
O      -14.21400000     2.09500000     1.48800000
H      -14.81800000     1.66100000     2.09100000
H      -14.68900000     2.87000000     1.18900000
O       -8.25700000     9.58600000    -4.44400000
H       -8.15700000    10.49400000    -4.15900000
H       -8.12700000     9.61600000    -5.39200000
O       -4.56300000   -13.14800000     1.29300000
H       -4.39700000   -13.12000000     2.23600000
H       -4.28800000   -12.28800000     0.97600000
O       -3.68700000     4.62800000    10.91100000
H       -2.95600000     4.73900000    10.30300000
H       -3.51600000     5.26000000    11.60900000
O      -11.66500000     4.78100000     3.77200000
H      -12.55400000     4.97400000     4.07100000
H      -11.10100000     5.08500000     4.48200000
O       11.34200000    -6.07100000     0.27800000
H       10.93600000    -5.20400000     0.29800000
H       10.60400000    -6.68100000     0.27100000
O      -11.89000000     7.35400000    -6.24900000
H      -11.57700000     8.11100000    -5.75300000
H      -12.84400000     7.43100000    -6.22800000
O        0.44100000     8.66200000     5.58000000
H        1.01000000     8.52000000     4.82400000
H        0.00500000     7.82100000     5.71400000
O       -7.93400000     6.85800000    -5.15200000
H       -7.73300000     7.62000000    -4.60800000
H       -8.44700000     6.28500000    -4.58200000
O       -2.51200000    11.42800000    14.80500000
H       -2.83700000    11.38400000    15.70400000
H       -3.29500000    11.57000000    14.27300000
O       -2.93000000    14.29500000    -4.72500000
H       -3.76800000    13.94700000    -5.03100000
H       -2.47500000    14.56100000    -5.52400000
O       -3.72600000    11.50300000     2.09700000
H       -3.10200000    11.43300000     1.37500000
H       -3.72600000    10.63400000     2.50000000
O       -4.13000000     3.88000000   -11.66500000
H       -4.32400000     4.81200000   -11.56000000
H       -3.43400000     3.70700000   -11.03000000
O       -1.35200000   -14.14900000   -12.58200000
H       -2.13300000   -14.37200000   -13.08800000
H       -1.34700000   -13.19200000   -12.55600000
O      -11.82200000   -14.00900000    -9.85500000
H      -10.86700000   -13.94200000    -9.86100000
H      -12.11800000   -13.18400000    -9.47100000
O       -5.57500000     6.86300000    -6.45500000
H       -6.17900000     6.89000000    -5.71300000
H       -4.78500000     7.30100000    -6.13700000
O       13.85900000     9.32100000    -3.96700000
H       13.13700000     8.69800000    -4.05700000
H       13.55000000     9.95500000    -3.32000000
O       -5.19000000     1.28400000     7.36500000
H       -6.10000000     1.55900000     7.47300000
H       -5.24700000     0.37500000     7.07100000
O       -7.00200000     6.73000000     0.23100000
H       -6.10400000     6.74000000     0.56200000
H       -7.01800000     7.41000000    -0.44200000
O       10.46800000    10.57900000    -5.84600000
H        9.58100000    10.82700000    -6.10500000
H       10.90500000    10.35800000    -6.66900000
O        9.48000000     6.23600000     4.59500000
H       10.32400000     6.50000000     4.22800000
H        9.70600000     5.64400000     5.31300000
O       -6.75500000     5.13300000    10.83400000
H       -6.94800000     4.59300000    11.60100000
H       -5.80000000     5.13200000    10.77400000
O       -2.04500000   -13.28700000    -1.89400000
H       -1.42200000   -13.98700000    -1.69700000
H       -2.88900000   -13.62800000    -1.59900000
O       14.84700000    12.30400000    -5.48000000
H       14.24100000    11.60600000    -5.73300000
H       15.43600000    11.89200000    -4.84800000
O       -1.72200000    11.42900000    -8.86500000
H       -1.91800000    11.26300000    -7.94300000
H       -2.48300000    11.09200000    -9.33700000
O       -1.02800000     8.60400000    -1.67800000
H       -1.93500000     8.52600000    -1.97600000
H       -0.52100000     8.72000000    -2.48100000
O       -7.03000000     8.60900000    10.17100000
H       -6.36500000     8.10900000     9.69800000
H       -7.04100000     9.46300000     9.73700000
O       13.82300000    14.37100000     5.11900000
H       14.35400000    14.20600000     5.89800000
H       12.92100000    14.24700000     5.41300000
O       -7.79600000   -12.40700000     5.36800000
H       -7.24400000   -13.17300000     5.21100000
H       -8.54700000   -12.74800000     5.85500000
O        1.67000000    -2.30900000   -13.23200000
H        1.14800000    -1.55400000   -13.50500000
H        1.23600000    -2.62700000   -12.44000000
O       -3.55200000     1.27200000     9.51500000
H       -2.90800000     1.79700000     9.03900000
H       -4.21000000     1.04600000     8.85800000
O       -0.49500000    -1.74000000    -8.55700000
H       -0.62300000    -1.91800000    -7.62500000
H       -1.37800000    -1.75100000    -8.92700000
O       -4.10000000     5.15800000    -4.49200000
H       -4.89200000     5.21500000    -3.95800000
H       -3.38600000     5.34100000    -3.88100000
O        4.03000000     0.10600000    -8.82300000
H        4.18300000     0.94900000    -8.39700000
H        3.82600000    -0.49200000    -8.10400000
O       -8.22700000    13.88100000    -0.19600000
H       -7.63600000    14.61400000    -0.02200000
H       -9.03200000    14.10600000     0.27000000
O       -5.22600000     8.00900000    12.25100000
H       -5.71300000     8.04700000    11.42700000
H       -5.26300000     8.90200000    12.59300000
O       12.35700000   -14.28200000    -1.59600000
H       12.51400000   -14.91900000    -0.89900000
H       12.94100000   -13.55200000    -1.39000000
O       -2.88300000     3.75700000    -6.69200000
H       -3.25100000     3.98500000    -5.83800000
H       -3.43100000     4.22600000    -7.32200000
O        9.66700000     4.98300000    -1.94400000
H        9.90900000     4.27400000    -1.34900000
H        9.19500000     4.54900000    -2.65500000
O      -13.54200000    15.11900000     1.46400000
H      -13.56300000    16.07000000     1.57500000
H      -12.71100000    14.94800000     1.02100000
O       -8.16300000     5.95000000     3.46100000
H       -7.54500000     5.25300000     3.24200000
H       -8.72100000     5.57200000     4.14100000
O       10.22400000     0.27400000   -13.07600000
H       10.32200000    -0.50600000   -13.62300000
H        9.44100000     0.70900000   -13.41700000
O        3.87200000    13.01800000   -11.08000000
H        4.73100000    12.73600000   -10.76700000
H        3.25700000    12.68500000   -10.42700000
O       -6.63800000   -10.41400000   -12.56900000
H       -6.54700000    -9.77100000   -11.86600000
H       -7.45900000   -10.86800000   -12.37500000
O       -3.79400000    14.17100000   -10.96000000
H       -3.78400000    15.00200000   -10.48400000
H       -3.39100000    14.37400000   -11.80500000
O       -8.86300000     8.91400000     5.67100000
H       -8.66900000     8.69700000     4.75900000
H       -8.03600000     9.25000000     6.01900000
O       -4.78500000    13.84200000    -2.46700000
H       -3.98800000    13.70400000    -2.97900000
H       -4.47300000    14.01200000    -1.57800000
O        2.39200000     7.77200000    12.99700000
H        2.64300000     8.28100000    13.76800000
H        3.12500000     7.87900000    12.39000000
O      -13.31500000    13.85800000    -6.84700000
H      -12.64600000    13.34900000    -7.30300000
H      -14.10000000    13.31200000    -6.88500000
O       10.92800000     8.16900000    -1.22500000
H       10.73200000     8.15200000    -2.16200000
H       11.08600000     7.25400000    -0.99500000
O        4.31400000    12.08500000    -0.39700000
H        4.61500000    12.28300000     0.49000000
H        4.36600000    11.13100000    -0.46100000
O      -11.64200000    10.11700000    -5.36300000
H      -11.24000000    10.95300000    -5.12800000
H      -12.47800000    10.35700000    -5.76400000
O      -13.58300000    12.16300000   -14.03300000
H      -12.80700000    12.47600000   -14.49800000
H      -13.76100000    11.30400000   -14.41500000
O       14.61300000    13.27600000     0.89400000
H       15.10900000    12.54200000     0.53000000
H       15.26900000    13.95500000     1.05200000
O        7.37000000     0.03800000    -5.74100000
H        6.74400000     0.07400000    -5.01800000
H        8.14200000     0.50000000    -5.41300000
O      -13.48400000     4.46800000    -0.82300000
H      -14.17400000     4.85300000    -1.36300000
H      -12.99100000     3.91100000    -1.42600000
O      -11.05100000    12.27500000     3.71700000
H      -11.23300000    12.22800000     2.77900000
H      -10.54300000    13.08000000     3.82200000
O       -1.71600000     7.46000000     1.18300000
H       -2.66800000     7.36700000     1.20800000
H       -1.47600000     7.23400000     0.28500000
O       -2.04000000     6.77400000    -8.06500000
H       -1.51000000     7.21400000    -8.73000000
H       -2.59300000     6.16900000    -8.56000000
O      -11.55500000    -8.41100000   -12.52400000
H      -10.99300000    -7.74400000   -12.91900000
H      -11.02000000    -8.79300000   -11.82800000
O        2.01600000     9.00600000   -14.33000000
H        2.47100000     9.77600000   -13.98900000
H        1.14500000     9.32600000   -14.56600000
O       -7.80100000     7.88300000    13.68400000
H       -8.38800000     7.77300000    12.93600000
H       -6.92200000     7.80800000    13.31100000
O        3.26300000    -1.99400000    -6.99300000
H        2.71100000    -2.62200000    -7.45900000
H        2.66300000    -1.54200000    -6.40000000
O      -14.85900000   -11.03300000    -8.59200000
H      -15.00400000   -11.94700000    -8.83400000
H      -14.92300000   -11.02500000    -7.63700000
O        0.34400000     6.26100000    13.70500000
H       -0.28800000     6.93700000    13.46300000
H        1.18400000     6.59200000    13.38500000
O        4.90800000   -14.30100000    11.88600000
H        4.31100000   -14.53900000    12.59500000
H        5.30000000   -13.47500000    12.16900000
O       11.38000000     8.55600000     7.71800000
H       10.91100000     9.24900000     7.25400000
H       12.24600000     8.53800000     7.31100000
O       -6.30000000    -9.65600000    11.79000000
H       -6.43000000    -9.75700000    12.73300000
H       -7.02900000    -9.10500000    11.50400000
O       -9.94100000   -13.59200000    13.18800000
H       -9.75900000   -12.78300000    12.71100000
H      -10.07200000   -14.24900000    12.50400000
O       -2.38000000     7.45700000    10.09800000
H       -2.28300000     7.17800000    11.00900000
H       -1.85600000     6.83100000     9.59800000
O      -10.24800000    11.83800000   -12.34800000
H      -10.16500000    11.11700000   -11.72400000
H      -11.06800000    12.26900000   -12.11000000
O       -5.72000000    11.87100000     0.27400000
H       -5.26500000    11.66500000     1.09000000
H       -5.88700000    12.81300000     0.32300000
O        8.37600000    14.76200000     2.54200000
H        8.31200000    13.80700000     2.55700000
H        7.99900000    15.01400000     1.70000000
O        1.26000000     8.85700000     8.02900000
H        0.90900000     8.96100000     7.14500000
H        0.50000000     8.96400000     8.60300000
O       -8.00100000     1.40300000     6.30500000
H       -8.57500000     1.14500000     7.02700000
H       -8.00200000     2.36000000     6.32900000
O        1.41500000    13.33900000     1.61100000
H        1.79700000    13.86100000     2.31500000
H        1.98600000    13.49600000     0.85800000
O       -0.85400000     9.56700000     9.65500000
H       -1.36500000     8.78600000     9.86500000
H       -1.41400000    10.06800000     9.06200000
O       -1.45800000     2.40500000     7.91700000
H       -0.89500000     1.79500000     8.39400000
H       -1.56700000     2.00600000     7.05400000
O       -1.51300000     4.88800000     9.09500000
H       -1.39400000     4.07900000     8.59700000
H       -0.80000000     4.88500000     9.73300000
O       -9.47800000     6.27200000   -13.79500000
H      -10.38300000     6.31100000   -14.10500000
H       -9.12700000     7.14500000   -13.96900000
O      -11.07600000     9.14100000    13.47500000
H      -11.22100000     8.20500000    13.33500000
H      -10.38900000     9.18100000    14.14000000
O        8.34500000    10.77600000    11.84000000
H        8.87800000    11.19300000    11.16200000
H        7.64800000    11.40700000    12.01800000
O        6.10400000    12.60500000    11.84900000
H        5.75600000    12.74700000    10.96900000
H        6.35400000    13.47800000    12.15200000
O       -0.29800000    11.19200000     5.21400000
H       -0.16800000    11.20200000     4.26500000
H       -0.35900000    10.26400000     5.43800000
O       -3.33800000    14.89600000    10.69400000
H       -3.47600000    15.68400000    11.22000000
H       -2.40200000    14.71300000    10.77700000
O       -9.36900000    10.94000000     7.63800000
H       -8.86100000    11.33500000     6.92900000
H       -9.72900000    10.13900000     7.25800000
O       -6.53600000   -12.03800000    10.50000000
H       -6.90400000   -12.78000000    10.97900000
H       -6.52700000   -11.32300000    11.13600000
O      -11.42600000     6.38100000    13.50200000
H      -12.30000000     6.26800000    13.12900000
H      -10.83200000     6.06900000    12.82100000
O        9.52500000     2.40900000     7.96000000
H       10.12500000     1.71500000     8.23300000
H        8.69700000     2.19500000     8.38900000
O       -3.29800000     5.48700000    15.34400000
H       -4.18600000     5.30700000    15.03500000
H       -2.98700000     4.64900000    15.68400000
O       -4.35900000     6.48300000     1.31900000
H       -3.94500000     5.73400000     1.74700000
H       -4.10700000     6.40400000     0.39900000
O       -7.19500000     3.01500000    12.53700000
H       -7.04500000     3.50100000    13.34800000
H       -6.32500000     2.72100000    12.26800000
O       -0.30200000    13.00900000    15.02500000
H       -1.20000000    12.76900000    15.25200000
H       -0.39300000    13.60100000    14.27800000
O       -0.39400000    14.21200000     9.08100000
H        0.15300000    13.77100000     9.73200000
H       -0.34700000    15.13800000     9.31600000
O       -6.98400000    11.02100000    14.68000000
H       -7.64900000    11.40600000    15.25100000
H       -7.42700000    10.90400000    13.84000000
O        2.24000000    11.24800000     9.80100000
H        2.99600000    11.16500000     9.22000000
H        1.64800000    10.54800000     9.52600000
O        1.38700000    10.43600000     2.09400000
H        0.98500000    10.38700000     1.22700000
H        1.69800000    11.33800000     2.16400000
O      -15.09800000    11.10000000     8.52600000
H      -15.21100000    10.30400000     9.04500000
H      -14.15800000    11.14000000     8.34900000
O       -6.26300000    10.69400000   -11.64500000
H       -5.54300000    10.76400000   -12.27100000
H       -6.70300000    11.54300000   -11.69000000
O       11.77500000   -10.92700000     8.29800000
H       11.77700000   -11.75500000     8.77800000
H       12.35900000   -10.35800000     8.79800000
O       -9.51000000     2.43600000    11.03000000
H       -9.61900000     1.52900000    11.31800000
H       -8.65200000     2.69300000    11.36800000
O       -5.07700000   -11.03800000     7.39500000
H       -5.88100000   -11.13100000     7.90600000
H       -4.48700000   -11.70200000     7.75100000
O       -3.65800000    14.36000000    13.46900000
H       -4.60800000    14.35400000    13.35100000
H       -3.30500000    14.20500000    12.59300000
O       -6.51200000    -1.93500000    -1.65400000
H       -6.23800000    -1.38100000    -2.38400000
H       -5.74700000    -2.47900000    -1.46500000
O      -10.12700000     7.41400000    -9.93600000
H       -9.51200000     7.74500000   -10.59100000
H       -9.60800000     7.34300000    -9.13400000
O      -13.81200000     9.27600000   -12.14700000
H      -13.29200000     8.78000000   -12.77900000
H      -13.37400000     9.13000000   -11.30900000
O      -13.72000000     6.32900000     7.89700000
H      -13.47000000     5.66100000     7.25900000
H      -13.03400000     6.99300000     7.83100000
O       -7.58300000    11.61000000     5.62800000
H       -7.57100000    12.05700000     4.78200000
H       -6.75400000    11.85500000     6.04000000
O       -4.15100000   -12.40100000    13.70000000
H       -5.03100000   -12.60000000    13.38000000
H       -4.27500000   -12.18200000    14.62300000
O       -2.83500000     6.50200000    12.74300000
H       -3.64200000     6.99700000    12.59900000
H       -2.55700000     6.74800000    13.62500000
O        6.65000000    11.26600000     4.81900000
H        6.88800000    10.89700000     3.96900000
H        6.14200000    10.57500000     5.24600000
O      -13.08600000    11.45100000    12.00900000
H      -13.96600000    11.78900000    11.84700000
H      -13.18600000    10.87500000    12.76700000
O       11.50500000     8.81800000   -10.53900000
H       12.27200000     8.70400000   -11.10000000
H       11.15700000     9.67600000   -10.78000000
O       -2.88900000    13.74500000     7.72300000
H       -2.13300000    13.75600000     8.31000000
H       -3.08200000    14.66900000     7.56300000
O       -8.09100000    15.06700000     9.97300000
H       -7.59100000    14.53300000    10.59000000
H       -7.45900000    15.30800000     9.29600000
O        0.88300000   -12.48800000     7.27000000
H        0.51900000   -12.63600000     8.14300000
H        1.78700000   -12.79600000     7.33200000
O       -6.10100000     7.07900000     5.42800000
H       -6.76500000     6.99900000     4.74300000
H       -6.01000000     6.19300000     5.77900000
O        4.34500000     4.80700000     5.90800000
H        4.03300000     4.52000000     5.05000000
H        3.54800000     4.99600000     6.40300000
O       -0.46100000   -11.23500000    14.30800000
H       -0.82400000   -12.10400000    14.13200000
H        0.05800000   -11.03100000    13.53000000
O        2.10600000     1.13300000    11.47800000
H        2.77900000     1.81300000    11.43600000
H        1.29800000     1.60700000    11.67300000
O       -1.93100000   -13.03800000     5.57100000
H       -1.03100000   -12.98800000     5.89400000
H       -2.05600000   -13.96100000     5.35100000
O       -6.74300000   -13.32500000    13.71400000
H       -7.40000000   -13.18400000    14.39600000
H       -6.80700000   -14.25900000    13.51000000
O       -4.86000000     7.42200000     8.73700000
H       -4.70000000     7.90700000     7.92700000
H       -4.00000000     7.35700000     9.15200000
O        3.49100000    -6.56400000   -12.82200000
H        4.20400000    -6.21000000   -12.29100000
H        3.05500000    -5.79200000   -13.18400000
O        0.13600000     2.66900000    11.96700000
H        0.24500000     3.10000000    12.81500000
H       -0.45100000     1.93500000    12.14500000
O       -7.71700000    11.81900000    11.86600000
H       -8.64200000    11.69300000    11.65300000
H       -7.27600000    11.83400000    11.01700000
O       -0.54300000     6.31800000   -10.65100000
H       -0.62800000     6.17500000   -11.59400000
H        0.02700000     5.61000000   -10.35200000
O       -7.85600000    12.95500000     3.25500000
H       -8.16700000    12.68400000     2.39100000
H       -8.45500000    13.65400000     3.51700000
O       10.09800000   -11.57900000    10.97500000
H        9.76400000   -11.89800000    10.13700000
H       10.64100000   -12.29500000    11.30500000
O        0.80200000    14.13100000   -11.17600000
H        0.66600000    13.20500000   -11.37600000
H        0.13400000    14.58800000   -11.68700000
O       -5.91000000   -13.41600000   -13.25400000
H       -6.59400000   -14.08600000   -13.27800000
H       -6.32300000   -12.63800000   -13.62700000
O       -6.57300000    13.99500000    13.36800000
H       -6.89900000    13.41100000    12.68300000
H       -6.97500000    13.66800000    14.17300000
O       -1.87400000     0.64300000    11.93000000
H       -1.99600000    -0.30600000    11.90700000
H       -1.79300000     0.89600000    11.01000000
O       -9.49400000   -14.41600000     6.46800000
H       -9.84400000   -13.78900000     7.10100000
H       -9.63200000   -15.27100000     6.87700000
O       -0.32500000    -6.79600000    -9.07400000
H        0.36700000    -6.91700000    -9.72400000
H       -0.59600000    -7.68500000    -8.84500000
O       -2.75300000    -8.24600000    -6.55200000
H       -1.93200000    -8.67300000    -6.79500000
H       -3.41900000    -8.69000000    -7.07700000
O       -4.22200000    -8.38100000    15.53700000
H       -3.87500000    -7.70300000    16.11600000
H       -4.84200000    -7.92000000    14.97100000
O        9.96500000     0.52500000    -8.01400000
H        9.07600000     0.75200000    -8.28800000
H       10.49600000     1.27800000    -8.27200000
O        4.38100000    -7.04600000    -1.63700000
H        4.56800000    -6.61300000    -2.47000000
H        3.98400000    -6.36400000    -1.09500000
O       14.94300000    -1.65900000     5.72800000
H       14.24500000    -1.04300000     5.50400000
H       14.55300000    -2.52200000     5.58900000
O        8.44100000    -6.49200000     0.17100000
H        8.06700000    -6.12400000    -0.63000000
H        8.07500000    -7.37500000     0.22300000
O       12.48300000   -10.59800000    -3.77600000
H       12.34100000   -10.29800000    -4.67300000
H       12.71800000   -11.52200000    -3.86500000
O        8.84600000    -6.68100000    -3.29600000
H        8.26900000    -6.10700000    -3.79900000
H        9.50700000    -6.96800000    -3.92600000
O        9.14400000   -13.24200000    -3.48700000
H        8.22800000   -13.12300000    -3.23700000
H        9.11400000   -13.85000000    -4.22500000
O        7.82900000     7.25400000    15.47300000
H        8.11400000     6.56900000    16.07900000
H        8.40200000     7.15400000    14.71300000
O      -14.93500000    -7.86400000     3.15400000
H      -14.21700000    -7.26000000     3.34300000
H      -15.27800000    -7.57100000     2.31000000
O        4.39200000    -2.56800000   -12.72100000
H        3.44900000    -2.47300000   -12.85600000
H        4.56500000    -3.49500000   -12.88800000
O        3.62700000    -9.70200000    -1.92100000
H        4.19700000   -10.10900000    -2.57400000
H        4.00100000    -8.83100000    -1.78500000
O       13.22500000     8.73100000     0.43900000
H       12.56800000     8.86100000    -0.24400000
H       14.04000000     8.57300000    -0.03900000
O       12.76500000   -11.80700000   -10.48000000
H       13.22000000   -12.57400000   -10.82800000
H       12.04500000   -11.65700000   -11.09200000
O        0.87400000    -7.57500000   -13.76900000
H        0.20700000    -7.74000000   -13.10200000
H        1.46100000    -6.93500000   -13.36800000
O        4.53800000     2.64800000    12.21700000
H        5.29600000     2.28100000    11.76200000
H        4.54200000     2.22000000    13.07300000
O       10.94400000    -9.15600000     0.33900000
H       11.16300000    -8.75300000    -0.50100000
H       10.76700000   -10.07200000     0.12700000
O       10.45500000    -7.62200000    -8.93000000
H        9.89000000    -8.38500000    -9.05100000
H       10.76800000    -7.41300000    -9.81100000
O      -14.53300000     8.29900000    -1.17100000
H      -14.78300000     7.39100000    -1.34100000
H      -13.63600000     8.24400000    -0.84200000
O       -0.19800000    -3.33300000     6.06600000
H       -0.87500000    -2.86000000     5.58200000
H        0.38200000    -2.64700000     6.39900000
O        3.47000000     9.21200000    -5.24100000
H        3.84200000    10.02400000    -5.58300000
H        3.91900000     8.51900000    -5.72500000
O        1.71200000    -7.58600000   -10.54300000
H        2.20100000    -7.07700000   -11.19000000
H        1.78900000    -8.49200000   -10.84300000
O       -9.38000000   -10.67600000     3.53300000
H       -8.86600000   -11.17700000     4.16500000
H       -9.88600000   -11.33600000     3.05800000
O       10.30100000    -8.97500000     5.31000000
H       11.17600000    -9.31000000     5.11400000
H        9.92600000    -8.76800000     4.45400000
O       -4.48800000    -7.45700000     6.48500000
H       -3.64800000    -7.79900000     6.17700000
H       -4.36700000    -7.33700000     7.42700000
O       -9.56500000    -5.66700000    -1.08300000
H      -10.45100000    -5.74800000    -0.73100000
H       -9.58900000    -4.86900000    -1.61200000
O       14.53700000   -13.89200000   -11.05300000
H       15.20000000   -13.82900000   -11.74000000
H       14.14700000   -14.75800000   -11.17500000
O        4.12500000    -3.27100000    -0.59300000
H        3.73500000    -3.19300000    -1.46400000
H        3.76700000    -2.53200000    -0.10200000
O        8.45500000     2.02200000     3.49100000
H        8.01400000     2.65400000     2.92300000
H        7.84700000     1.88800000     4.21800000
O      -13.75300000    10.79000000    -3.34000000
H      -13.11200000    10.20700000    -3.74700000
H      -14.55500000    10.27000000    -3.29200000
O      -14.43700000   -11.15500000   -12.32300000
H      -14.09200000   -10.65000000   -13.05900000
H      -15.37600000   -11.22200000   -12.49700000
O       10.45700000     8.40900000    -8.08200000
H       11.16800000     8.00000000    -7.58800000
H       10.83000000     8.57300000    -8.94800000
O        4.83300000    -2.43000000    -9.58900000
H        5.29200000    -2.27000000    -8.76500000
H        4.55900000    -1.56200000    -9.88400000
O        3.02100000    -7.58500000    12.79000000
H        2.33000000    -8.03100000    13.27900000
H        3.10400000    -8.08700000    11.97900000
O       10.56500000    -3.46000000     1.04600000
H       10.12300000    -3.99500000     1.70500000
H        9.86300000    -2.95000000     0.64100000
O      -13.30000000    -0.02900000    -8.77500000
H      -13.92200000    -0.07900000    -9.50200000
H      -13.23400000    -0.92800000    -8.45400000
O       11.74700000   -10.97800000     3.43300000
H       11.47000000   -10.50900000     2.64600000
H       11.05100000   -11.61500000     3.59100000
O        6.63000000     4.89500000   -13.22600000
H        7.40800000     4.49100000   -12.84300000
H        6.39000000     5.58700000   -12.61000000
O        4.90000000    -6.80900000    14.80500000
H        4.46000000    -7.07400000    13.99700000
H        4.27800000    -7.02300000    15.49900000
O       14.22200000     9.17400000    -8.59100000
H       14.37000000     9.72700000    -9.35800000
H       14.43500000     8.28900000    -8.88800000
O        6.27100000   -13.83600000    -5.84600000
H        6.40400000   -13.49200000    -4.96300000
H        5.59600000   -14.50700000    -5.74200000
O        9.18800000   -10.16200000    14.84600000
H        8.92400000    -9.57000000    14.14200000
H        8.43900000   -10.17400000    15.44300000
O       12.02500000   -13.97700000     8.92700000
H       11.11600000   -14.21900000     8.74800000
H       12.46300000   -14.80800000     9.11100000
O       12.05900000     5.75900000    -0.89600000
H       11.21000000     5.47400000    -1.23300000
H       12.43700000     4.97300000    -0.50200000
O        8.36700000    -9.54700000    -2.61400000
H        8.76900000    -8.71100000    -2.85200000
H        9.10800000   -10.12700000    -2.43600000
O        9.98000000   -13.56300000     5.68400000
H        9.67700000   -13.19500000     4.85400000
H        9.48000000   -13.09400000     6.35200000
O        7.53600000     9.32100000     1.84000000
H        8.32400000     9.23400000     2.37600000
H        7.86300000     9.47500000     0.95400000
O       11.32600000    -7.09900000     9.51300000
H       11.30600000    -7.83900000    10.11900000
H       12.10900000    -6.60700000     9.76100000
O      -14.82200000    -2.75900000    -2.82300000
H      -14.55500000    -2.98700000    -1.93300000
H      -14.09600000    -2.23900000    -3.16600000
O       10.74100000     4.55400000    -6.24900000
H        9.85400000     4.53600000    -5.89000000
H       11.19100000     3.83200000    -5.81200000
O        1.65800000    -5.02300000    -7.32900000
H        1.29000000    -5.49000000    -8.08000000
H        2.56200000    -5.33100000    -7.27400000
O        3.34700000    11.15500000    -8.38600000
H        3.87000000    10.40800000    -8.67800000
H        2.60100000    11.17400000    -8.98500000
O      -10.20300000    11.22100000    -9.18100000
H      -10.64300000    12.04500000    -8.96900000
H      -10.91600000    10.60300000    -9.34100000
O        8.24600000     8.57400000    -3.93700000
H        7.97500000     9.13300000    -4.66600000
H        7.55500000     7.91500000    -3.87200000
O       10.74200000    11.92200000     1.57100000
H       10.54400000    11.02700000     1.29700000
H        9.89000000    12.30100000     1.78700000
O      -14.96500000    -8.25700000    -7.14000000
H      -15.54300000    -8.69800000    -7.76400000
H      -14.28700000    -7.85500000    -7.68400000
O       -9.58500000   -12.95300000    -0.32800000
H       -8.64300000   -13.04600000    -0.47500000
H       -9.87600000   -12.34700000    -1.00900000
O        5.98300000    -3.24100000    13.67500000
H        6.48900000    -3.85300000    14.20900000
H        6.47600000    -3.17200000    12.85700000
O       -2.95500000   -10.80300000   -14.12000000
H       -3.54700000   -10.08000000   -14.32700000
H       -2.28000000   -10.76200000   -14.79800000
O        9.46400000   -12.50500000     3.13700000
H        9.70200000   -12.40800000     2.21500000
H        8.92400000   -13.29500000     3.16400000
O       -6.44600000   -10.19300000     4.99900000
H       -5.83900000   -10.49600000     5.67500000
H       -7.18100000   -10.80500000     5.04600000
O       12.67800000    -7.36200000    14.06400000
H       13.19700000    -6.58800000    13.84400000
H       12.51800000    -7.79200000    13.22400000
O        6.23800000   -12.86200000    -3.37900000
H        6.06100000   -12.84400000    -2.43900000
H        6.10200000   -11.95900000    -3.66600000
O        7.12100000    -8.36800000     2.03200000
H        6.58000000    -7.77400000     2.55200000
H        6.68500000    -8.40800000     1.18100000
O       12.99900000   -13.04800000    -5.13300000
H       12.67300000   -13.81800000    -4.66800000
H       12.59000000   -13.09800000    -5.99700000
O      -10.81100000     4.66900000     1.13300000
H      -11.72100000     4.86700000     0.91200000
H      -10.75900000     4.80100000     2.07900000
O        6.57600000     1.49600000     5.03200000
H        6.26300000     1.96300000     5.80600000
H        7.03200000     0.73000000     5.38100000
O        9.59300000    -1.78800000     3.63000000
H       10.33500000    -2.30000000     3.30700000
H        9.99300000    -1.07300000     4.12600000
O      -12.30000000   -10.50200000     7.44200000
H      -12.69000000   -11.00500000     6.72700000
H      -11.99600000    -9.69400000     7.02700000
O       14.87100000     7.89300000     9.29000000
H       15.52400000     7.41900000     8.77600000
H       14.12700000     7.99700000     8.69600000
O        7.97600000    15.17900000    -7.74900000
H        7.32200000    15.51600000    -7.13700000
H        8.64800000    14.78700000    -7.19000000
O       -2.85600000    -7.13600000    -2.20700000
H       -1.91600000    -7.16100000    -2.38600000
H       -3.02900000    -7.94200000    -1.72100000
O        7.26100000    -2.23000000    -2.94600000
H        6.75600000    -1.43800000    -3.13000000
H        7.21200000    -2.73900000    -3.75500000
O       12.99800000    -5.65700000     4.28400000
H       13.88900000    -5.80500000     4.60300000
H       12.44600000    -6.18400000     4.86200000
O       10.93900000     6.50700000    14.50700000
H       10.43400000     6.42600000    13.69900000
H       11.44100000     7.31500000    14.39700000
O      -12.35900000    -5.66500000    -5.79500000
H      -11.93600000    -5.46300000    -4.96000000
H      -13.22500000    -5.26400000    -5.72800000
O      -13.02900000    -6.34000000     3.99800000
H      -12.17800000    -5.93600000     4.16600000
H      -13.58700000    -6.03000000     4.71100000
O       12.50800000    -8.63400000    -1.75300000
H       12.63900000    -9.45900000    -2.22100000
H       12.43700000    -7.97500000    -2.44400000
O       -8.93000000   -11.08700000   -11.09400000
H       -9.28300000   -10.22300000   -10.88000000
H       -9.62000000   -11.50600000   -11.60900000
O        5.16700000   -11.34300000    -7.25500000
H        5.79300000   -11.90900000    -6.80200000
H        4.43300000   -11.26200000    -6.64700000
O        1.85200000    15.07000000    -3.80900000
H        1.32500000    14.48400000    -3.26600000
H        1.28300000    15.29300000    -4.54500000
O       -9.10900000    -4.31100000    -9.06500000
H       -9.36000000    -3.75500000    -8.32700000
H       -9.12300000    -3.72600000    -9.82200000
O        7.05500000    13.25600000     6.94900000
H        7.29600000    12.72100000     6.19300000
H        7.41200000    14.12300000     6.75300000
O       11.00900000    13.85900000     6.14800000
H       10.39200000    13.27700000     5.70300000
H       10.68300000    14.74000000     5.96300000
O        0.95600000     1.35300000   -13.75400000
H        0.07400000     1.01500000   -13.60100000
H        1.39500000     0.66100000   -14.24900000
O        7.16900000    -6.82400000    -5.79400000
H        8.08300000    -7.10800000    -5.82600000
H        7.13200000    -6.06800000    -6.38000000
O        9.39100000    -3.69400000    -7.19100000
H        9.69900000    -3.24700000    -6.40300000
H       10.10300000    -3.58600000    -7.82200000
O        5.47100000    13.00600000     2.07300000
H        5.01900000    13.81600000     2.31100000
H        4.91700000    12.30900000     2.42300000
O        2.18400000     9.89400000    -2.83500000
H        2.13800000     9.50000000    -3.70600000
H        2.88100000    10.54700000    -2.90300000
O       12.11500000    -6.66900000    -3.67000000
H       11.67400000    -5.93200000    -3.24700000
H       12.29000000    -6.36400000    -4.56100000
O        9.43500000    -6.35900000   -14.26300000
H       10.00400000    -5.75900000   -14.74500000
H        9.95400000    -6.62300000   -13.50300000
O       12.66900000     3.24200000     6.00500000
H       12.01400000     3.32900000     6.69800000
H       12.79700000     4.13400000     5.68200000
O        5.45000000    -8.86700000    -8.47800000
H        5.69400000    -9.65300000    -7.99000000
H        6.28500000    -8.49200000    -8.76100000
O      -10.89700000     2.64200000     6.47500000
H      -11.43800000     3.03800000     5.79200000
H      -10.21100000     3.28900000     6.64300000
O        8.04500000    11.10700000    -6.68100000
H        7.22100000    11.52300000    -6.93400000
H        8.06300000    10.28800000    -7.17600000
O        0.07500000   -11.48200000    -2.45600000
H        0.93500000   -11.89000000    -2.55900000
H       -0.41900000   -12.09600000    -1.91200000
O      -13.74100000    -7.78100000    -0.26600000
H      -14.62900000    -7.85400000     0.08100000
H      -13.44800000    -6.91100000     0.00400000
O      -13.79200000     3.74000000    -6.27000000
H      -13.20900000     3.86800000    -5.52100000
H      -14.58200000     3.35000000    -5.89600000
O       -4.14500000     3.45100000     6.13500000
H       -3.47900000     3.28500000     5.46800000
H       -4.30300000     2.59600000     6.53500000
O       10.33300000    -1.08900000    -2.84800000
H       10.03700000    -0.36100000    -2.30200000
H       11.12300000    -1.40900000    -2.41200000
O       12.11600000    13.26400000    -0.12900000
H       11.63400000    12.75700000     0.52400000
H       13.01400000    13.28900000     0.20100000
O        9.79200000   -12.47700000    -8.53000000
H        9.18800000   -13.22000000    -8.51700000
H       10.66200000   -12.87600000    -8.52500000
O        4.42200000     0.57600000     1.66400000
H        5.23700000     0.08100000     1.57700000
H        4.70400000     1.46200000     1.89200000
O       12.77000000    -0.99300000   -10.58200000
H       12.74300000    -0.75000000    -9.65700000
H       12.90500000    -0.16500000   -11.04400000
O       -9.82700000    -0.07300000     1.94900000
H       -9.15500000    -0.15500000     2.62500000
H      -10.57600000     0.31600000     2.40000000
O        7.85100000    -0.20800000    14.85700000
H        8.07700000     0.70200000    15.05200000
H        7.34400000    -0.16000000    14.04700000
O        9.50900000   -10.80600000    -6.09200000
H        9.67000000   -11.46600000    -6.76600000
H       10.37300000   -10.62900000    -5.71800000
O       12.89600000     1.36800000   -12.61500000
H       12.06700000     0.90300000   -12.73400000
H       13.27400000     1.41200000   -13.49300000
O        6.42500000    -8.63300000    -0.70300000
H        5.74900000    -8.13800000    -1.16600000
H        7.04300000    -8.89200000    -1.38700000
O      -10.59000000    -3.72200000   -13.38100000
H      -11.29600000    -3.14900000   -13.08200000
H       -9.87200000    -3.55800000   -12.76900000
O        2.95300000     2.58300000    -3.13300000
H        2.91000000     1.64700000    -3.33000000
H        3.82200000     2.70600000    -2.74900000
O       10.48500000    -2.62800000    -5.02300000
H       10.12400000    -2.08000000    -4.32600000
H       11.28400000    -2.99800000    -4.64800000
O       12.24200000    -9.62200000    -6.36800000
H       12.39500000    -8.70100000    -6.15500000
H       12.56500000    -9.71700000    -7.26400000
O        9.14300000    -5.62100000     9.94700000
H        8.46700000    -6.16200000     9.54000000
H        9.92500000    -6.17300000     9.94700000
O        1.79000000     3.82900000   -12.74800000
H        1.72600000     2.93800000   -13.09200000
H        2.41700000     4.26400000   -13.32500000
O        7.85300000    -1.02000000     5.53100000
H        8.56500000    -1.32100000     4.96600000
H        7.11100000    -1.57900000     5.30000000
O        8.26300000   -14.12300000    -0.20400000
H        8.70800000   -14.83000000    -0.67100000
H        8.95300000   -13.48700000    -0.01700000
O       -6.48200000     4.33300000    -9.73500000
H       -6.55100000     3.40300000    -9.51900000
H       -7.12200000     4.46500000   -10.43400000
O      -14.08100000    -2.39400000   -10.91600000
H      -14.22900000    -1.73200000   -11.59100000
H      -14.75100000    -3.05800000   -11.08000000
O        1.26600000    -8.92900000    -2.62400000
H        2.16000000    -9.23900000    -2.48400000
H        0.73100000    -9.72200000    -2.60300000
O       10.26500000   -12.07000000     0.72100000
H       11.16400000   -12.39400000     0.78500000
H       10.11700000   -11.95700000    -0.21800000
O       11.04100000    -4.82200000    -2.00800000
H       11.35700000    -5.49000000    -1.39900000
H       10.10400000    -4.75400000    -1.82400000
O        8.02500000    -6.15800000   -10.92400000
H        8.21900000    -5.22200000   -10.97900000
H        8.44200000    -6.44200000   -10.11000000
O        3.40100000   -12.82500000    -9.92200000
H        3.17600000   -13.56000000    -9.35200000
H        4.35700000   -12.78500000    -9.89500000
O       12.99300000    -5.37900000    10.99000000
H       13.58400000    -5.32800000    11.74100000
H       12.48000000    -4.57200000    11.03300000
O       14.41200000     5.87300000    -1.94600000
H       13.52000000     5.88100000    -1.59900000
H       14.30000000     5.85900000    -2.89600000
O        4.91400000    -6.22500000    -4.36300000
H        4.91400000    -5.34100000    -4.73000000
H        5.61800000    -6.67700000    -4.82600000
O        7.69600000    -3.22200000    11.72300000
H        7.76800000    -4.03600000    11.22400000
H        8.58800000    -3.04400000    12.02200000
O        7.34700000     3.23100000    -0.70100000
H        7.48300000     3.96500000    -0.10300000
H        6.50000000     3.40800000    -1.11100000
O        3.55800000     4.33400000    10.25300000
H        3.79800000     3.70800000    10.93700000
H        4.35700000     4.83600000    10.09600000
O      -14.01700000    -2.80800000    -7.96300000
H      -14.19000000    -3.02300000    -8.88000000
H      -14.15800000    -3.63000000    -7.49300000
O        3.54900000    -8.35700000    -5.48300000
H        3.69100000    -8.28700000    -6.42700000
H        3.86300000    -7.52500000    -5.13000000
O        2.58700000   -12.47500000    -2.73000000
H        2.54000000   -12.66700000    -1.79300000
H        2.44600000   -13.32000000    -3.15500000
O        8.09200000    -8.54700000   -12.14300000
H        8.12200000    -7.62900000   -11.87400000
H        7.58100000    -8.54400000   -12.95200000
O        4.43400000    14.42600000   -13.56000000
H        5.39100000    14.41800000   -13.56600000
H        4.19400000    13.90600000   -12.79300000
O        8.09700000   -10.01100000    12.18800000
H        8.79700000   -10.43900000    11.69600000
H        7.46000000    -9.75100000    11.52300000
O       14.40700000     6.71100000     2.37400000
H       14.12300000     7.52300000     1.95400000
H       15.29600000     6.89600000     2.67600000
O       -7.07300000   -13.66300000    -7.36800000
H       -6.61000000   -13.18800000    -6.67800000
H       -7.38400000   -12.98000000    -7.96200000
O       11.06700000    -8.39000000   -11.55600000
H       11.78000000    -8.11600000   -12.13300000
H       10.48000000    -8.89100000   -12.12200000
O       10.41600000     6.22300000   -12.89700000
H       10.50400000     6.40800000   -13.83200000
H       11.22800000     5.77300000   -12.66400000
O       13.37000000    -9.12500000     4.87200000
H       13.80800000    -8.59900000     4.20300000
H       13.06400000    -9.90200000     4.40400000
O       -1.29000000   -13.78400000    14.36500000
H       -2.18700000   -13.91700000    14.67000000
H       -0.75100000   -13.90000000    15.14800000
O        5.94600000   -10.20800000     3.32600000
H        5.58600000   -10.68600000     2.57900000
H        6.52800000    -9.55600000     2.93500000
O        4.55600000    -1.13700000    14.89100000
H        4.62500000    -1.65900000    15.69100000
H        4.94300000    -1.68800000    14.21100000
O       14.40900000    -4.81500000   -13.21300000
H       14.78700000    -4.97500000   -14.07700000
H       13.89200000    -5.60000000   -13.02800000
O        8.81800000     2.19700000    15.28500000
H        8.78100000     2.79000000    16.03500000
H        9.65900000     2.38700000    14.86900000
O      -12.39300000     1.79300000    13.17600000
H      -12.62700000     1.45000000    12.31400000
H      -11.46100000     1.59300000    13.26900000
O        6.42400000    -1.38500000     9.82500000
H        6.62500000    -2.25100000    10.18100000
H        6.28300000    -1.53600000     8.89100000
O        9.38800000     1.85900000    12.09100000
H        9.50300000     2.74500000    11.74900000
H        9.04200000     1.98600000    12.97500000
O       14.18000000    -4.21400000     8.05600000
H       13.28800000    -4.00400000     7.77900000
H       14.09800000    -4.43000000     8.98500000
O       12.52000000    -2.94300000     4.39800000
H       12.58900000    -3.89600000     4.33800000
H       12.60900000    -2.75400000     5.33200000
O       13.12300000    -1.51600000     9.55500000
H       13.76600000    -1.91600000    10.14200000
H       12.45700000    -1.15500000    10.14000000
O      -14.02000000    -0.66900000    12.36700000
H      -13.71800000    -0.58200000    13.27100000
H      -13.25200000    -0.97700000    11.88600000
O        9.11700000   -12.85700000    13.68600000
H        9.78500000   -13.16200000    13.07200000
H        9.41000000   -11.98300000    13.94400000
O        6.76800000    -1.23100000   -12.04500000
H        6.77800000    -0.88500000   -12.93700000
H        5.96000000    -1.74200000   -11.99500000
O      -14.31300000   -10.11100000    12.15100000
H      -14.17400000   -10.25700000    11.21600000
H      -14.11900000    -9.18300000    12.28100000
O       13.03500000    11.17800000   -14.22800000
H       12.65600000    11.79200000   -14.85800000
H       13.79500000    11.63900000   -13.87300000
O      -12.07900000    -4.33600000     8.49100000
H      -12.67000000    -3.76800000     7.99600000
H      -11.49600000    -3.73200000     8.95100000
O        6.19800000    -9.59200000     9.97900000
H        5.35400000    -9.32800000    10.34400000
H        6.26000000   -10.52800000    10.16900000
O       11.54800000    -9.01300000    11.51000000
H       10.82500000    -9.62600000    11.37700000
H       12.32700000    -9.49800000    11.23700000
O       13.76400000    13.59200000   -11.38100000
H       13.88000000    12.69300000   -11.07300000
H       14.48200000    13.73000000   -11.99800000
O      -12.34700000    -7.52000000     8.90100000
H      -12.08000000    -6.70800000     8.46900000
H      -12.89200000    -7.96800000     8.25300000
O        7.43700000     9.87900000   -13.61000000
H        6.66100000     9.80700000   -13.05400000
H        7.51000000     9.02300000   -14.03200000
O       12.01300000    -6.83800000     6.48100000
H       12.16800000    -7.02500000     7.40700000
H       11.17900000    -7.26700000     6.28700000
O      -11.76100000     4.10600000    10.36200000
H      -12.38600000     3.38200000    10.38600000
H      -10.91300000     3.69900000    10.53900000
O       -9.81300000     0.65300000    14.30200000
H       -9.74600000     0.05400000    13.55900000
H       -8.90500000     0.82500000    14.55300000
O        4.56100000     4.66700000    -9.63700000
H        4.83200000     3.90900000   -10.15400000
H        4.57600000     5.39700000   -10.25600000
O       11.94400000    -4.02100000    -8.88100000
H       12.30100000    -3.15600000    -8.68300000
H       12.54700000    -4.38700000    -9.52900000
O        7.19100000    -7.24300000     8.80500000
H        7.63700000    -7.36200000     7.96700000
H        6.98900000    -8.13200000     9.09800000
O        8.05900000    12.23000000     1.52700000
H        7.12200000    12.22800000     1.72100000
H        8.18200000    11.49000000     0.93200000
O       11.08700000     0.38400000     8.48300000
H       11.83400000    -0.02300000     8.04400000
H       11.17200000     0.11700000     9.39800000
O      -13.28200000    -9.84400000   -10.20200000
H      -13.60300000   -10.26100000   -11.00200000
H      -13.91000000   -10.10300000    -9.52800000
O       11.71600000    14.30200000   -13.20500000
H       12.53600000    13.95100000   -12.85800000
H       11.33600000    14.79100000   -12.47500000
O        9.26000000     8.95100000     3.93900000
H        9.28000000     8.16500000     4.48600000
H       10.15300000     9.03200000     3.60300000
O       12.41300000    13.45200000    13.92900000
H       11.87000000    13.98300000    14.51300000
H       13.07300000    14.06100000    13.59700000
O       -8.83400000     6.93900000    10.95000000
H       -8.37300000     7.71700000    10.63700000
H       -8.19500000     6.23100000    10.86400000
O        9.18000000     3.91700000   -12.66300000
H        9.53800000     4.78200000   -12.86400000
H        9.83200000     3.51500000   -12.08800000
O       10.24900000     0.54400000     4.81000000
H        9.68500000     0.74800000     5.55700000
H       10.03200000     1.20900000     4.15700000
O       12.89300000   -11.65300000   -13.64000000
H       12.14300000   -12.22600000   -13.47900000
H       12.57500000   -10.77600000   -13.42900000
O        2.59300000    -8.64700000     7.43600000
H        2.93100000    -9.54100000     7.48600000
H        3.24400000    -8.17200000     6.91900000
O        3.63700000   -10.79900000    13.27000000
H        4.45000000   -11.29700000    13.18500000
H        3.59000000   -10.57200000    14.19900000
O       14.22200000    -2.88200000    11.85200000
H       14.39000000    -3.43800000    12.61300000
H       14.58000000    -2.02800000    12.09500000
O        5.07200000    -7.99000000     6.24800000
H        5.41500000    -8.85200000     6.01300000
H        5.85100000    -7.45500000     6.40000000
O       14.41800000   -11.42600000     1.64300000
H       14.24100000   -12.20700000     2.16800000
H       13.91100000   -10.73300000     2.06700000
O       11.14600000    -2.19400000    13.19800000
H       10.43700000    -2.35900000    13.81900000
H       11.90700000    -2.00400000    13.74600000
O        2.88400000    -6.96700000     9.69300000
H        2.76200000    -7.91600000     9.66300000
H        2.02000000    -6.62100000     9.91900000
O        6.56800000     1.09100000    10.99100000
H        7.24600000     0.91100000    11.64200000
H        6.39100000     0.24100000    10.58700000
O       14.85400000   -11.99800000    14.27900000
H       14.31600000   -11.66800000    14.99800000
H       14.72400000   -11.36600000    13.57200000
O        9.00500000    -9.88500000    -9.35800000
H        8.88900000   -10.06900000   -10.29000000
H        9.25200000   -10.72700000    -8.97600000
O       13.70200000    -9.61100000     9.54400000
H       14.23300000    -8.92700000     9.95300000
H       14.27500000   -10.37700000     9.51900000
O      -12.47900000   -10.80100000    14.56500000
H      -12.65600000    -9.86200000    14.60800000
H      -12.99100000   -11.10900000    13.81700000
O       -5.10600000    -2.78600000     2.75000000
H       -4.79500000    -3.36800000     3.44300000
H       -4.87300000    -3.23600000     1.93700000
O      -12.74200000     1.37000000    10.28300000
H      -13.50300000     0.87700000     9.97800000
H      -11.98900000     0.86000000     9.98400000
O        5.14000000     1.62800000    14.54900000
H        4.92600000     0.71300000    14.37000000
H        5.58100000     1.61000000    15.39900000
O        5.00700000    -5.38800000     8.98000000
H        5.80500000    -5.91600000     9.02700000
H        4.30800000    -5.98700000     9.24400000
O        8.61000000    -1.87100000    -0.23600000
H        8.31100000    -1.96400000    -1.14000000
H        8.87000000    -0.95300000    -0.16200000
O        6.93100000     3.86700000    12.99500000
H        6.69000000     4.62600000    13.52600000
H        6.21000000     3.24900000    13.11700000
O        5.66400000     6.06200000    14.12400000
H        5.81100000     6.34100000    15.02700000
H        5.56900000     6.87800000    13.63200000
O        8.10100000    -7.49800000     6.30300000
H        8.57600000    -6.80200000     5.84900000
H        8.58700000    -8.29600000     6.09300000
O      -14.87500000    -7.41800000    10.60700000
H      -13.99500000    -7.28400000    10.25300000
H      -15.31800000    -6.58000000    10.47200000
O        6.28700000   -10.37900000    -4.19200000
H        7.17500000   -10.16100000    -3.90900000
H        5.96100000    -9.57500000    -4.59800000
O       -9.71800000    -3.03600000    -6.88100000
H      -10.15100000    -3.66900000    -6.30700000
H       -9.42100000    -2.34300000    -6.29200000
O       -8.94400000    -8.55300000    -1.43900000
H       -8.23400000    -8.66600000    -2.07100000
H       -9.01600000    -7.60600000    -1.32500000
O       10.88200000    -0.37300000    10.95300000
H       10.92400000    -0.99500000    11.68000000
H       10.35800000     0.35300000    11.29000000
O       11.97300000    11.53100000     7.74600000
H       12.89500000    11.62200000     7.99000000
H       11.81000000    12.26000000     7.14800000
O      -14.48700000    -4.82600000    -0.53100000
H      -15.16900000    -4.81100000     0.14100000
H      -14.77100000    -5.50300000    -1.14600000
O        7.01100000    -0.64500000     1.68900000
H        7.65200000    -1.21300000     1.26100000
H        7.49400000    -0.24100000     2.41000000
O        6.35500000     8.99200000    12.72600000
H        7.05600000     9.54600000    12.38200000
H        5.82400000     9.58100000    13.26100000
O      -11.85900000     1.31700000     3.01300000
H      -11.70800000     2.14400000     3.47000000
H      -12.67200000     1.45600000     2.52700000
O        9.11800000   -10.87600000     6.69400000
H        9.59200000   -10.11600000     6.35500000
H        9.54600000   -11.07300000     7.52700000
O      -15.12200000    -5.36400000    13.02100000
H      -14.55600000    -5.09500000    12.29700000
H      -14.54300000    -5.84300000    13.61400000
O       -1.25400000    -8.13900000     1.21000000
H       -0.75100000    -7.74400000     0.49800000
H       -1.56800000    -7.39400000     1.72300000
O       13.19200000    -2.07500000    14.92000000
H       14.04200000    -1.63600000    14.91600000
H       13.20900000    -2.62400000    15.70400000
O      -11.08200000    -0.27600000     5.66700000
H      -11.67200000     0.45400000     5.85200000
H      -11.12600000    -0.38500000     4.71700000
O        4.35700000    -5.49700000     5.53600000
H        3.97400000    -4.69400000     5.88900000
H        4.11600000    -6.17600000     6.16700000
O        2.22000000   -12.35000000    -0.16600000
H        2.46100000   -12.90800000     0.57400000
H        2.00000000   -11.50700000     0.23100000
O       -9.53500000    -0.27500000    11.70800000
H      -10.14500000    -0.91000000    11.33100000
H       -8.72800000    -0.77000000    11.84500000
O       -8.82000000   -10.94600000     9.43200000
H       -7.96400000   -11.15800000     9.80500000
H       -9.36900000   -10.74700000    10.19000000
O      -14.34500000    -0.46800000     9.09600000
H      -15.28400000    -0.64400000     9.15200000
H      -14.01500000    -1.12100000     8.47900000
O      -12.94200000    -2.08700000     7.24300000
H      -12.21800000    -1.54300000     6.93400000
H      -13.67700000    -1.85300000     6.67700000
O       12.47800000    -6.29600000    -7.05200000
H       12.08300000    -5.53600000    -7.48000000
H       12.45700000    -6.98300000    -7.71800000
O      -10.35700000    -6.38600000   -14.06800000
H      -10.44600000    -5.45000000   -13.88900000
H       -9.41600000    -6.55200000   -14.01300000
O      -11.41700000    -9.29800000     0.29400000
H      -10.70900000    -8.84500000    -0.16500000
H      -12.14900000    -8.68100000     0.27500000
O       -0.62800000    -5.99700000     6.06200000
H       -0.56900000    -5.04500000     6.13900000
H       -0.59800000    -6.16400000     5.12000000
O      -12.56200000    14.85600000     6.89300000
H      -13.22900000    14.17100000     6.87500000
H      -12.85200000    15.49100000     6.23800000
O        4.64400000     2.47100000     7.23700000
H        5.27900000     2.66600000     7.92600000
H        4.41100000     3.32600000     6.87500000
O       12.13900000    -2.21000000     7.00300000
H       11.35800000    -2.69700000     7.26600000
H       12.70900000    -2.23600000     7.77100000
O      -13.28600000   -10.03300000     2.93300000
H      -13.72800000   -10.47900000     2.21000000
H      -13.91500000    -9.37500000     3.22900000
O      -11.21000000   -11.45300000    -8.88800000
H      -10.25600000   -11.37600000    -8.85500000
H      -11.49300000   -10.70800000    -9.41800000
O        7.31400000    -4.23600000     7.33500000
H        6.72500000    -3.48600000     7.24500000
H        6.76700000    -4.92600000     7.71200000
O       13.61700000     5.96100000     5.95200000
H       14.20700000     6.27100000     6.63800000
H       13.51100000     6.71200000     5.36800000
O        3.52000000    11.10900000   -13.71200000
H        3.61700000    12.01100000   -13.40600000
H        4.20100000    11.00800000   -14.37800000
O        9.32400000     0.72600000    -0.99600000
H        8.74200000     1.45500000    -1.20900000
H        9.88600000     1.06400000    -0.29800000
O        7.55100000     0.98500000   -10.14100000
H        6.89300000     1.49600000   -10.61300000
H        7.49400000     0.10900000   -10.52200000
O        4.55800000   -14.53300000     2.80800000
H        4.85600000   -14.24300000     1.94600000
H        3.68400000   -14.15500000     2.90000000
O        9.58200000    11.59200000     5.33900000
H       10.31600000    11.14200000     4.92000000
H        8.80600000    11.25100000     4.89300000
O        6.97500000    15.13900000   -10.13900000
H        6.49600000    15.96100000   -10.04300000
H        7.29700000    14.94400000    -9.25900000
O        4.78200000     9.40600000    -0.86900000
H        5.28200000     9.54900000    -1.67300000
H        5.38400000     8.93500000    -0.29300000
O        1.24100000   -11.99900000    -7.39300000
H        1.50200000   -12.87500000    -7.67600000
H        2.06100000   -11.57200000    -7.14700000
O        2.85900000   -10.94300000    -5.60600000
H        3.02600000   -10.01300000    -5.45000000
H        2.69900000   -11.30800000    -4.73600000
O        5.33300000     9.51600000   -11.60500000
H        4.60900000    10.00500000   -11.99400000
H        5.25400000     9.67800000   -10.66500000
O        6.70300000   -14.58000000     4.97700000
H        7.31500000   -14.79400000     4.27200000
H        5.96000000   -14.17100000     4.53300000
O       12.15300000     6.82300000    -6.30300000
H       12.02100000     7.40700000    -5.55600000
H       11.37000000     6.27300000    -6.32000000
O        6.11800000   -12.48100000    -9.69000000
H        6.11500000   -11.93200000    -8.90500000
H        6.56500000   -11.95200000   -10.35100000
O        7.01200000    -4.45200000     1.79100000
H        6.98700000    -4.27300000     0.85000000
H        7.89200000    -4.79700000     1.94600000
O       12.86800000     2.84000000    -5.06800000
H       12.75100000     2.70600000    -4.12800000
H       13.31200000     3.68600000    -5.13600000
O      -13.96300000    11.01200000    -0.45800000
H      -14.78700000    10.64800000    -0.13600000
H      -13.76500000    10.50000000    -1.24200000
O      -13.06200000    15.09600000     4.21300000
H      -12.74900000    14.19200000     4.22600000
H      -13.48500000    15.19100000     3.35900000
O      -13.84000000     3.86900000     5.61100000
H      -14.72500000     4.18900000     5.43700000
H      -13.96100000     2.95400000     5.86600000
O      -12.91600000    13.74200000   -10.92100000
H      -13.34800000    14.18300000   -11.65200000
H      -12.52900000    14.45200000   -10.40800000
O        2.46300000     5.02300000    -7.49600000
H        1.57500000     4.67800000    -7.40200000
H        2.72500000     4.77200000    -8.38200000
O       10.50600000    10.76300000    14.35700000
H       11.35400000    10.32400000    14.28100000
H       10.04800000    10.54100000    13.54600000
O       11.67900000     2.97200000    -0.87000000
H       11.28300000     3.19200000    -0.02600000
H       11.81600000     2.02500000    -0.83000000
O        4.93600000     8.95500000    -8.97700000
H        4.46300000     8.12300000    -8.96000000
H        5.85000000     8.71400000    -8.82600000
O        8.04800000     7.03400000    -0.93800000
H        7.57300000     7.01800000    -1.76900000
H        8.95600000     6.84800000    -1.17700000
O        6.53000000    12.43200000   -10.49500000
H        6.83700000    12.11100000   -11.34300000
H        6.80500000    13.34900000   -10.47200000
O        7.57000000     8.59100000    -8.18000000
H        7.51800000     7.80700000    -7.63300000
H        8.48800000     8.63800000    -8.44700000
O      -12.26000000     8.65000000     7.27500000
H      -12.10700000     9.01900000     6.40600000
H      -12.44900000     9.40800000     7.82800000
O       10.23300000   -11.34500000    -2.01900000
H        9.86000000   -11.95200000    -2.65800000
H       11.08900000   -11.11300000    -2.37900000
O      -11.94300000    12.17600000     1.14300000
H      -12.58400000    11.70200000     0.61400000
H      -11.88000000    13.03700000     0.73000000
O        9.11600000     7.23400000   -10.69400000
H        9.76100000     7.85700000   -10.36000000
H        9.44100000     6.99300000   -11.56100000
O       10.32700000     1.92800000   -10.69900000
H       10.43400000     1.27200000   -11.38800000
H        9.49300000     1.70600000   -10.28400000
O      -13.78800000     9.78700000    14.54700000
H      -14.24400000     8.99700000    14.83600000
H      -12.87700000     9.51300000    14.43900000
O       10.67700000     6.29800000     8.82100000
H       10.94200000     7.10100000     8.37300000
H       10.03200000     5.89900000     8.23800000
O       13.07600000     0.45100000    -0.30400000
H       13.33200000    -0.43800000    -0.54800000
H       13.71000000     1.01400000    -0.75000000
O        6.50100000     3.08500000    -5.43800000
H        5.69100000     3.37300000    -5.01700000
H        6.21100000     2.57800000    -6.19600000
O        6.31300000     6.70600000    -3.52200000
H        5.37600000     6.78900000    -3.34500000
H        6.36000000     6.33000000    -4.40100000
O        4.94500000    11.37100000    13.95100000
H        4.05900000    11.72700000    13.88800000
H        5.38600000    11.68300000    13.16100000
O        7.77200000     4.72000000     2.95000000
H        7.30500000     5.47100000     2.58200000
H        8.43000000     5.10700000     3.52800000
O        4.71700000     6.94800000    -6.83800000
H        4.12200000     6.28000000    -7.17900000
H        5.51500000     6.46800000    -6.61900000
O        8.70800000     3.15600000    -3.91600000
H        9.15700000     2.34200000    -4.14300000
H        7.95700000     3.18800000    -4.50900000
O       12.47500000    11.24400000    -7.92200000
H       12.76200000    10.34100000    -7.79200000
H       12.40000000    11.33800000    -8.87200000
O       12.15800000    10.63100000     4.43200000
H       12.23500000     9.99900000     3.71800000
H       12.94700000    11.16800000     4.36400000
O       14.00200000     0.65800000     2.95500000
H       13.67200000     0.45200000     3.82900000
H       13.56200000     0.03300000     2.37900000
O        2.02900000     8.11800000     3.24000000
H        1.88500000     7.42300000     2.59700000
H        1.78000000     8.92200000     2.78500000
O       10.52000000   -12.45100000   -12.15500000
H        9.70100000   -11.95800000   -12.20000000
H       10.28300000   -13.27300000   -11.72600000
O       12.84200000     1.88600000    -9.46800000
H       12.16900000     1.85300000   -10.14800000
H       13.23100000     2.75700000    -9.55700000
O        3.16600000    -3.14400000     3.70200000
H        3.11700000    -2.90300000     4.62700000
H        4.03200000    -2.84700000     3.42300000
O       -3.20100000   -10.41100000     1.03700000
H       -3.93800000   -10.20500000     1.61300000
H       -2.49900000    -9.83000000     1.32900000
O        9.63200000    15.12100000   -11.16400000
H        8.68500000    15.00800000   -11.08800000
H        9.98600000    14.71200000   -10.37400000
O        9.15900000    13.87700000    -5.75800000
H        9.99100000    13.40400000    -5.74300000
H        8.52800000    13.26400000    -5.38100000
O       12.63400000    13.75100000    -6.84300000
H       12.57100000    12.79900000    -6.92400000
H       12.55900000    13.91600000    -5.90300000
O       11.72200000     8.64500000     2.68800000
H       12.05100000     8.93800000     1.83800000
H       11.44500000     7.74100000     2.54000000
O       13.64700000     8.82500000   -12.29700000
H       14.55100000     9.13000000   -12.22900000
H       13.23400000     9.43200000   -12.91100000
O        3.10600000    14.74200000    -0.58000000
H        3.82900000    15.36500000    -0.51200000
H        3.52500000    13.91100000    -0.80200000
O      -14.11300000     1.30100000     6.56700000
H      -13.97600000     1.05500000     7.48200000
H      -14.95300000     0.90400000     6.33500000
O       14.71600000    12.44300000     3.72300000
H       14.55500000    12.90700000     2.90100000
H       14.26800000    12.96700000     4.38600000
O       -7.86200000     9.03800000     3.08800000
H       -8.03600000     9.85000000     2.61400000
H       -7.51300000     8.44200000     2.42500000
O      -10.18300000     6.01300000     5.90500000
H      -10.09700000     6.94100000     6.12300000
H      -10.10900000     5.56100000     6.74500000
O       10.30700000    11.41800000    -2.65600000
H       10.05600000    11.00500000    -3.48200000
H        9.68100000    12.13400000    -2.54600000
O        0.46500000     8.87000000   -11.39300000
H        0.94800000     8.68800000   -12.19900000
H        0.37000000     8.01500000   -10.97300000
O       -1.48500000    13.32700000     0.93400000
H       -0.54900000    13.25800000     1.12100000
H       -1.73200000    12.45800000     0.61800000
O       10.17100000    10.56700000   -12.61800000
H        9.26000000    10.27600000   -12.60200000
H       10.39200000    10.61300000   -13.54800000
O        6.15800000    12.57400000    -7.88100000
H        6.42300000    12.34700000    -8.77200000
H        6.54000000    13.43800000    -7.72900000
O        2.05800000    12.26900000    13.77600000
H        1.39700000    12.51700000    14.42200000
H        1.55600000    11.90200000    13.04800000
O        1.05100000   -10.02800000     1.34200000
H        1.08500000   -10.08200000     2.29700000
H        0.45700000    -9.29800000     1.16500000
O      -12.11600000    12.87100000    -2.16200000
H      -12.97200000    12.44600000    -2.21400000
H      -11.72800000    12.73800000    -3.02600000
O       13.69600000     4.60900000   -10.56700000
H       14.56400000     4.23100000   -10.71200000
H       13.16600000     4.27600000   -11.29100000
O       12.32400000     4.29800000   -12.88700000
H       12.81700000     4.58300000   -13.65700000
H       12.35100000     3.34200000   -12.92500000
O      -14.82500000    11.28000000   -10.78700000
H      -14.39300000    10.73800000   -11.44800000
H      -14.15200000    11.90100000   -10.50900000
O        6.91100000     5.67300000    -6.14300000
H        6.79600000     4.72900000    -6.04000000
H        7.41600000     5.76700000    -6.95000000
O        5.82500000    11.19000000    -2.88300000
H        5.60800000    11.35300000    -3.80100000
H        5.80000000    12.05400000    -2.47300000
O       12.36100000   -13.41200000    -8.16200000
H       12.63500000   -12.92900000    -8.94200000
H       13.01800000   -14.10100000    -8.06300000
O        3.49700000     6.30100000    -3.08900000
H        3.29400000     5.67100000    -3.78000000
H        2.87500000     7.01500000    -3.22400000
O       12.59700000    14.33100000    -3.99100000
H       12.45600000    14.77900000    -3.15700000
H       13.50600000    14.03500000    -3.95500000
O       -5.09800000    13.73200000     3.13900000
H       -4.44800000    13.03100000     3.09200000
H       -5.93500000    13.29500000     2.98100000
O      -14.37300000    10.49300000     5.39700000
H      -13.44500000    10.27600000     5.48400000
H      -14.40500000    11.12400000     4.67900000
O       -2.72600000     1.83300000    14.34700000
H       -2.04500000     2.50500000    14.37700000
H       -2.54200000     1.34000000    13.54700000
O       14.50900000    -4.98300000   -10.49000000
H       14.24100000    -5.15100000   -11.39300000
H       15.34300000    -5.44300000   -10.39700000
O        9.94400000    13.96000000    -1.53500000
H       10.67200000    13.47400000    -1.14800000
H       10.35400000    14.72000000    -1.94700000
O       11.26500000     5.98400000     2.10400000
H       10.96400000     5.14400000     1.75800000
H       12.15600000     5.81200000     2.40900000
O      -14.07500000    15.36700000    -4.48100000
H      -13.57700000    14.80600000    -5.07700000
H      -14.91800000    15.49100000    -4.91700000
O      -14.86700000   -14.31300000    -8.28500000
H      -14.86200000   -14.38500000    -9.24000000
H      -14.32200000   -15.04100000    -7.98700000
O        5.11000000    11.72200000    -5.47200000
H        5.38700000    11.77700000    -6.38600000
H        4.88300000    12.62100000    -5.23500000
O        8.64200000    14.59200000    12.94500000
H        8.86700000    14.06400000    13.71100000
H        8.71900000    15.49700000    13.24700000
O        2.80700000   -13.09400000   -12.41400000
H        2.82200000   -13.28400000   -11.47600000
H        3.00000000   -13.93400000   -12.83200000
O        6.28900000     6.84900000   -11.22600000
H        7.19500000     7.01000000   -10.96300000
H        5.93300000     7.71900000   -11.40300000
O        9.83800000     3.54300000     1.10100000
H       10.12200000     2.68300000     1.40900000
H        9.26700000     3.87000000     1.79600000
O       10.94400000     8.48500000    -4.25500000
H       10.04500000     8.30700000    -3.98000000
H       10.88200000     9.28700000    -4.77400000
O       -7.15000000    -9.93800000    14.40200000
H       -6.77500000    -9.85300000    15.27800000
H       -7.63300000   -10.76400000    14.42600000
O      -14.44500000     8.44100000    -6.04300000
H      -14.81000000     8.84600000    -6.82900000
H      -15.13900000     8.51900000    -5.38800000
O        6.09600000   -11.74500000    13.28900000
H        6.63300000   -12.32600000    13.82800000
H        6.71000000   -11.08900000    12.95800000
O        4.09800000    10.66400000     3.20200000
H        3.84900000    10.92900000     4.08700000
H        3.52300000     9.92500000     3.00200000
O        9.69300000    11.90400000     9.56000000
H       10.46500000    11.81600000     9.00100000
H        9.02500000    11.36600000     9.13400000
O        4.79300000    12.72100000     8.86400000
H        5.54300000    12.55100000     8.29400000
H        4.60700000    13.65300000     8.74300000
O       11.08300000    14.06400000    -9.10200000
H       11.52200000    14.35400000    -8.30200000
H       11.53500000    13.25500000    -9.34300000
O        7.00300000    12.95500000   -13.41100000
H        7.92800000    13.02000000   -13.64800000
H        6.73200000    12.09700000   -13.73800000
O        2.61700000     6.15300000   -11.20500000
H        2.41900000     5.30200000   -11.59700000
H        2.77700000     6.72900000   -11.95200000
O       13.70700000     8.64400000     5.88000000
H       14.56100000     9.04500000     5.72100000
H       13.08600000     9.21400000     5.42500000
O        4.18800000     7.80000000     4.94400000
H        3.88000000     7.46000000     5.78400000
H        3.40000000     7.85500000     4.40400000
O       13.93000000     4.76300000    14.68400000
H       13.49800000     4.43800000    13.89400000
H       14.74900000     4.27100000    14.73000000
O        7.45700000     8.24000000     9.95800000
H        8.29400000     8.70500000     9.97800000
H        6.92500000     8.73000000     9.33100000
O       14.33700000     5.51500000    -4.81800000
H       15.14300000     5.91600000    -5.14400000
H       13.71700000     5.60300000    -5.54200000
O       14.74300000   -13.34200000     8.29800000
H       14.97600000   -13.99400000     7.63700000
H       13.80100000   -13.45700000     8.42700000
O       -0.38200000     9.71800000    14.43900000
H       -1.24000000    10.14100000    14.46000000
H        0.09300000    10.17200000    13.74300000
O      -13.51200000     5.92100000    11.69200000
H      -13.00500000     5.29200000    11.17800000
H      -14.11800000     6.31200000    11.06200000
O       11.40500000    -4.46300000    15.24100000
H       11.38500000    -3.91200000    16.02300000
H       11.25700000    -3.85500000    14.51600000
O       14.10400000    11.84000000    11.55700000
H       13.52800000    11.89400000    12.31900000
H       13.59600000    11.35500000    10.90600000
O       12.43300000    10.03700000    10.13500000
H       11.61800000     9.94900000     9.64200000
H       12.37200000     9.37100000    10.82000000
O       11.45600000     3.65100000     9.55100000
H       11.60200000     4.48200000     9.10000000
H       10.52100000     3.47700000     9.44000000
O      -12.15300000    11.12000000     8.72000000
H      -11.22700000    10.90500000     8.60500000
H      -12.14800000    11.97600000     9.14900000
O        8.88100000     7.17400000    12.75100000
H        9.56700000     7.65500000    12.28900000
H        8.09700000     7.71300000    12.64300000
O       13.07100000     0.41700000     5.76200000
H       13.07800000     1.35200000     5.55400000
H       12.19300000     0.25400000     6.10500000
O       11.06800000     2.94600000    14.44200000
H       11.75800000     2.31600000    14.23700000
H       11.42900000     3.79200000    14.17700000
O       14.91000000    13.44100000     7.43700000
H       14.38000000    13.79000000     8.15400000
H       15.04600000    12.52100000     7.66400000
O       12.56000000     8.70900000    14.02600000
H       13.19900000     9.20900000    14.53300000
H       13.06300000     8.34500000    13.29800000
O       12.81400000     3.32600000    12.20900000
H       12.36400000     3.71200000    11.45800000
H       12.87500000     2.39400000    11.99900000
O        5.82700000     5.84700000    10.11700000
H        6.44600000     6.57400000    10.18200000
H        5.81400000     5.62600000     9.18500000
O       11.12100000   -13.91500000    12.11000000
H       10.89100000   -14.50400000    11.39200000
H       11.91400000   -14.29500000    12.48800000
O        9.10200000    -2.33600000    14.95600000
H        8.70900000    -1.46300000    14.94800000
H        8.36500000    -2.92900000    15.10600000
O      -11.20000000   -11.95200000   -12.89300000
H      -11.83700000   -11.49400000   -13.44200000
H      -11.72700000   -12.53800000   -12.35100000
O       14.08200000     7.41800000    12.06500000
H       14.79700000     6.91400000    12.45400000
H       14.47300000     7.83600000    11.29800000
O       11.46200000     7.51100000    11.39600000
H       12.30400000     7.09400000    11.57900000
H       11.14000000     7.06600000    10.61100000
O        9.27400000    14.62300000    10.23400000
H        9.29100000    14.35700000    11.15300000
H        9.47400000    13.82300000     9.74900000
O        4.40100000     8.23600000    10.80900000
H        4.51200000     7.51400000    10.19000000
H        5.11600000     8.12800000    11.43500000
O        5.74200000   -10.69000000     5.81800000
H        5.86700000   -10.64000000     4.87100000
H        6.61300000   -10.53900000     6.18400000
O       14.02400000    14.22100000     9.90400000
H       14.86600000    14.57200000    10.19600000
H       13.85000000    13.49000000    10.49700000
O        1.84000000   -13.38200000    12.66100000
H        2.48000000   -13.99700000    13.02100000
H        2.12700000   -12.52500000    12.97600000
O       11.16200000    11.81200000   -10.52000000
H       10.67100000    12.62100000   -10.37700000
H       10.81400000    11.46300000   -11.34000000
O        2.04400000    13.82000000    10.38900000
H        2.58500000    13.91400000    11.17300000
H        2.17900000    12.91400000    10.11200000
O        8.62400000    10.36100000     7.64700000
H        7.85600000    10.00700000     7.19800000
H        9.15400000    10.74600000     6.94900000
O        6.25700000     8.92500000     6.35900000
H        5.52200000     8.49000000     5.92800000
H        5.86000000     9.40100000     7.08800000
O      -11.82300000    15.10600000     9.43600000
H      -12.10100000    14.90800000     8.54200000
H      -11.38700000    15.95600000     9.37000000
O        9.42600000    -5.17600000     5.68700000
H       10.25700000    -4.96100000     6.11100000
H        8.75800000    -4.83500000     6.28200000
O      -12.29200000     6.56900000   -13.89400000
H      -13.13300000     7.02700000   -13.88500000
H      -12.10600000     6.42900000   -14.82300000
O        3.57800000    11.98100000     5.55000000
H        4.40100000    12.41400000     5.77600000
H        2.93900000    12.34600000     6.16100000
O        8.96200000   -12.92500000     8.93300000
H        8.08800000   -12.64600000     9.20800000
H        9.00500000   -13.85100000     9.17200000
O       13.81000000     1.53400000    14.61000000
H       14.41900000     2.26300000    14.49500000
H       14.37100000     0.76300000    14.69300000
O        8.59700000     5.85400000    -8.32600000
H        9.45900000     5.45500000    -8.20700000
H        8.62800000     6.23800000    -9.20200000
O        6.02300000     7.36400000     2.91700000
H        5.64500000     7.46900000     3.79100000
H        6.46100000     8.19700000     2.74300000
O       14.36200000    -8.12600000     7.31300000
H       13.97300000    -8.42100000     6.49000000
H       14.03000000    -8.73900000     7.96900000
O       -9.95700000     5.66800000     8.88900000
H       -9.56300000     6.21400000     9.56900000
H      -10.76300000     5.33600000     9.28500000
O        7.32000000   -13.98900000   -14.40900000
H        7.85300000   -14.26600000   -13.66400000
H        7.95600000   -13.77500000   -15.09200000
O      -12.93200000   -12.15000000     5.21100000
H      -12.96000000   -11.49100000     4.51700000
H      -13.60400000   -12.78600000     4.96600000
O        1.03200000    14.66800000     4.16100000
H        0.09500000    14.58100000     3.98400000
H        1.14000000    14.33300000     5.05100000
O        5.39000000     9.61600000     8.77500000
H        5.08700000    10.51500000     8.90100000
H        4.84300000     9.09400000     9.36200000
O      -14.12700000    -8.37500000   -13.52400000
H      -13.79800000    -7.92100000   -14.30000000
H      -13.38300000    -8.39400000   -12.92300000
O      -10.43300000    11.27000000    11.54500000
H      -11.36800000    11.43600000    11.66200000
H      -10.29500000    10.39900000    11.91900000
O       -4.99500000    11.64100000     7.54000000
H       -4.16800000    11.17000000     7.64500000
H       -4.73500000    12.55300000     7.40400000
O       -1.88200000    14.65500000     3.67500000
H       -1.57500000    14.06600000     2.98600000
H       -2.65100000    15.08300000     3.29900000
Na       9.57000000    13.32100000    15.15900000
Na      -1.96200000    -0.19000000   -11.18800000
Na      -6.96300000    14.57600000    -3.89200000
