2633
None None None
P        0.00000000     0.00000000     0.00000000
O       -1.47200000     0.00300000     0.54500000
O        0.43700000    -1.27300000    -0.98400000
H       -0.31600000    -1.91100000    -0.96700000
O        0.44200000     1.27100000    -0.98400000
H       -0.30800000     1.91200000    -0.96600000
O        1.24100000    -0.00200000     1.10700000
H        2.08300000    -0.00400000     0.59000000
O      -10.56900000    -1.32100000    -1.17700000
H      -10.66900000    -0.57200000    -0.59000000
H      -10.02400000    -1.93800000    -0.68900000
O        4.71100000     2.00800000   -11.47600000
H        4.61700000     1.13000000   -11.10600000
H        3.94600000     2.11300000   -12.04100000
O        6.59800000    -9.73200000    14.99200000
H        5.85100000   -10.04200000    15.50600000
H        6.22900000    -9.07000000    14.40900000
O       -7.72600000    12.27900000   -10.80500000
H       -8.43100000    11.72200000   -10.47500000
H       -7.70100000    13.01800000   -10.19700000
O        6.43500000   -13.84700000     6.79700000
H        6.27500000   -14.69600000     6.38500000
H        6.94500000   -13.35700000     6.15000000
O       -7.97900000     3.71400000     6.53100000
H       -8.30600000     4.36900000     7.15000000
H       -7.03700000     3.87800000     6.48700000
O       -2.80500000    -3.02800000    -2.85700000
H       -3.40000000    -3.75100000    -2.65800000
H       -1.93300000    -3.41900000    -2.82900000
O       -8.81100000    -8.02700000    -6.23700000
H       -9.27600000    -8.82400000    -6.49000000
H       -8.78700000    -7.50000000    -7.03600000
O      -14.05400000    -0.92200000    -6.40200000
H      -14.87700000    -0.60200000    -6.77400000
H      -13.78100000    -1.62300000    -6.99300000
O        4.16500000     3.61800000    -5.65400000
H        3.77900000     3.17600000    -4.89700000
H        3.45800000     4.16100000    -6.00200000
O       -5.62600000    -6.31400000     2.88800000
H       -6.23200000    -6.74700000     3.49000000
H       -5.29600000    -7.02000000     2.33200000
O       -3.46400000    -3.64800000    -9.23400000
H       -4.04800000    -3.19800000    -8.62400000
H       -3.01100000    -4.29900000    -8.69800000
O        7.38900000    -5.49200000    -8.60200000
H        7.30100000    -5.25700000    -9.52600000
H        8.04900000    -4.88500000    -8.26400000
O       -9.07500000    -1.31000000    -5.98800000
H       -8.92500000    -1.27900000    -5.04300000
H       -9.93600000    -0.91000000    -6.10800000
O       14.61800000     3.96400000     0.26400000
H       14.95800000     4.53700000     0.95200000
H       15.20800000     4.10300000    -0.47700000
O      -12.15700000    -7.83300000    13.90900000
H      -11.41600000    -7.42100000    14.35500000
H      -11.82800000    -8.03500000    13.03400000
O       -1.75900000    10.55600000    -0.74000000
H       -0.82600000    10.36500000    -0.82900000
H       -2.16600000    10.12600000    -1.49100000
O       13.34600000    -9.43300000    -9.38900000
H       12.40700000    -9.31200000    -9.52500000
H       13.52500000   -10.31700000    -9.70800000
O        3.67300000     6.36300000   -14.25700000
H        3.01900000     7.05400000   -14.37100000
H        3.58900000     5.82100000   -15.04100000
O       -4.00500000     0.98800000    -8.27300000
H       -3.55600000     1.82900000    -8.18900000
H       -4.81300000     1.09800000    -7.77100000
O        3.74200000   -10.13900000    10.10700000
H        3.42500000   -10.48200000    10.94300000
H        3.68200000   -10.88000000     9.50500000
O       14.10900000    -5.05700000     0.83500000
H       13.17100000    -4.99600000     0.66100000
H       14.16700000    -5.40000000     1.72700000
O      -12.30100000     5.77500000   -11.09200000
H      -11.50800000     6.31000000   -11.09100000
H      -12.01700000     4.92400000   -10.75600000
O        3.28700000    -0.53900000    -4.27300000
H        2.56200000    -0.63200000    -4.89000000
H        3.01300000    -1.03900000    -3.50400000
O       -1.16000000    -0.31700000   -14.40300000
H       -1.78900000    -1.01800000   -14.23200000
H       -1.61200000     0.26700000   -15.01100000
O        2.24300000     7.03300000    -1.57100000
H        2.58800000     7.90900000    -1.74000000
H        2.97300000     6.44400000    -1.76500000
O      -10.25800000    13.79000000    11.29600000
H       -9.79300000    13.11400000    10.80400000
H      -10.90600000    14.13100000    10.67800000
O       -2.93100000     8.12300000    -6.39500000
H       -3.00000000     8.88600000    -6.96600000
H       -2.61400000     7.42200000    -6.96700000
O       -0.15900000    11.05300000   -13.04700000
H        0.46500000    11.04800000   -13.77300000
H        0.28200000    10.56900000   -12.34900000
O      -13.10100000    -7.12800000    -9.80000000
H      -12.77700000    -7.91600000   -10.23500000
H      -12.31600000    -6.70200000    -9.45700000
O      -10.31200000   -13.30100000     1.70000000
H      -11.24300000   -13.16400000     1.52500000
H       -9.92200000   -13.42500000     0.83500000
O        2.28800000    -0.61500000    13.44700000
H        3.13000000    -1.01300000    13.66800000
H        2.45100000    -0.15000000    12.62600000
O       -3.67100000   -12.81400000     3.20800000
H       -3.93300000   -11.89400000     3.20100000
H       -2.99800000   -12.86700000     3.88600000
O        0.46500000   -14.31600000    -6.06600000
H        0.07500000   -13.56800000    -6.51800000
H        0.40000000   -15.03600000    -6.69300000
O       -7.81600000    11.93000000    -5.18000000
H       -7.59800000    12.81300000    -4.88200000
H       -7.67300000    11.95500000    -6.12600000
O       -2.41300000    -5.92000000    12.02100000
H       -2.81400000    -5.16900000    11.58600000
H       -1.70400000    -5.54400000    12.54400000
O       13.84500000     0.57500000    -7.29500000
H       13.75800000     1.15300000    -8.05300000
H       13.49800000     1.08600000    -6.56300000
O       -6.33600000    -8.61200000   -11.43600000
H       -5.67200000    -8.09000000   -11.88600000
H       -6.70200000    -8.01900000   -10.77900000
O        9.69500000    -5.58500000     2.42700000
H       10.03000000    -6.47800000     2.35700000
H        9.60100000    -5.43600000     3.36800000
O       -6.89600000    -1.22600000    -7.84600000
H       -7.53100000    -1.48600000    -7.17900000
H       -6.32500000    -1.98700000    -7.94500000
O       -5.60400000   -12.18900000    -2.63700000
H       -5.42400000   -11.73300000    -3.45900000
H       -4.91700000   -11.89000000    -2.04000000
O        1.16100000    -1.00200000    -5.92700000
H        0.47500000    -0.43000000    -6.26900000
H        0.71200000    -1.82500000    -5.73000000
O       -7.04100000     2.30600000    -2.43600000
H       -7.55700000     2.89800000    -1.88900000
H       -7.07600000     1.46500000    -1.97800000
O        7.76500000   -11.39100000   -12.27400000
H        6.99100000   -11.42100000   -12.83800000
H        8.10800000   -10.50400000   -12.38500000
O        6.53800000     5.50500000     0.00900000
H        6.18600000     6.04200000     0.71900000
H        7.25800000     6.02500000    -0.35100000
O       -7.48200000    -6.79300000    14.91400000
H       -7.33000000    -6.25400000    15.69000000
H       -6.62500000    -6.85500000    14.49300000
O       -4.28000000    10.88900000    11.85700000
H       -4.28800000    11.28800000    10.98700000
H       -5.07400000    11.21800000    12.27900000
O       -3.49800000    11.30200000   -13.38000000
H       -3.43900000    12.25200000   -13.27800000
H       -3.05100000    10.95000000   -12.61100000
O      -10.00300000   -11.38500000    -2.59100000
H      -10.85600000   -11.04600000    -2.86500000
H       -9.45900000   -10.60500000    -2.48400000
O       -1.54300000    -2.67600000    12.11900000
H       -1.11600000    -2.94900000    11.30700000
H       -0.82800000    -2.59100000    12.75000000
O       -3.32400000     5.82100000    -1.95800000
H       -3.34500000     6.59100000    -2.52900000
H       -2.40300000     5.56200000    -1.93900000
O        0.88100000   -10.49400000     8.26900000
H        1.43300000    -9.85200000     7.82200000
H        0.57700000   -11.07600000     7.57400000
O       -0.15700000     4.53100000    -7.13100000
H       -0.66900000     3.96500000    -6.55300000
H       -0.78300000     5.18500000    -7.44300000
O       -9.77300000    -0.91600000    -8.88400000
H       -9.44700000    -1.71500000    -8.46900000
H      -10.29400000    -0.48800000    -8.20500000
O       -2.74800000   -10.06500000     3.49300000
H       -1.87900000    -9.67900000     3.38600000
H       -2.92400000   -10.00400000     4.43200000
O      -11.69100000     8.72600000    -9.94500000
H      -12.13000000     8.13600000    -9.33300000
H      -10.89900000     8.25500000   -10.20700000
O       -5.29900000    -8.99800000    -1.37800000
H       -6.22300000    -9.17500000    -1.19700000
H       -5.14500000    -9.38600000    -2.23900000
O       -8.23100000     4.05100000    -0.72700000
H       -8.89300000     3.96000000    -0.04200000
H       -7.60000000     4.67600000    -0.36900000
O       -1.96300000   -10.25300000    -1.90300000
H       -1.13400000   -10.72000000    -2.01500000
H       -2.32000000   -10.59500000    -1.08200000
O       -3.77100000     0.51900000    -3.03700000
H       -4.61900000     0.11200000    -3.21300000
H       -3.96100000     1.45600000    -2.98200000
O       -3.41200000    -6.34300000    -5.58800000
H       -3.34900000    -7.05300000    -4.94700000
H       -4.01700000    -5.71700000    -5.19400000
O       -7.31300000    13.81700000   -13.25800000
H       -8.00900000    13.29200000   -13.65300000
H       -7.40300000    13.66500000   -12.31700000
O        1.00000000     3.61200000   -10.38900000
H        1.17700000     3.60700000   -11.32900000
H        1.55800000     2.91800000   -10.03700000
O       -8.68300000   -14.11600000   -10.47500000
H       -7.83400000   -14.52400000   -10.64400000
H       -8.52900000   -13.18100000   -10.60700000
O       -5.27800000    -6.27500000    -8.37400000
H       -4.79000000    -6.54100000    -7.59500000
H       -4.67100000    -5.71400000    -8.85700000
O       -3.72200000     3.40000000     1.02800000
H       -3.08700000     2.88800000     0.52800000
H       -4.55100000     2.93800000     0.91100000
O       -5.61700000    -4.91400000    -4.95900000
H       -5.38100000    -4.67500000    -4.06300000
H       -6.55000000    -5.12600000    -4.91300000
O       -6.02700000     8.08900000    -9.21100000
H       -5.52600000     7.70800000    -8.49000000
H       -5.38500000     8.21500000    -9.91000000
O       -2.49900000   -11.96800000    -8.28900000
H       -2.10700000   -11.48800000    -7.55900000
H       -1.86400000   -12.65600000    -8.49400000
O      -11.92700000    -4.67500000     1.00100000
H      -12.49200000    -4.20300000     0.39000000
H      -12.53200000    -5.12800000     1.58800000
O      -10.89800000    -9.06700000     3.60700000
H      -10.15400000    -9.60200000     3.33000000
H      -11.64800000    -9.44200000     3.14700000
O       -7.42500000    -9.50900000    -4.16800000
H       -8.04000000    -8.93100000    -4.62000000
H       -7.05000000   -10.05000000    -4.86200000
O      -10.20000000   -10.68100000    -6.32700000
H      -10.87100000   -11.31900000    -6.08700000
H       -9.93800000   -10.92900000    -7.21300000
O        3.51600000    -3.79900000    -3.84600000
H        4.10000000    -3.83800000    -4.60300000
H        2.63900000    -3.90100000    -4.21300000
O       -2.07400000   -12.25400000   -12.29300000
H       -2.44200000   -11.88300000   -13.09400000
H       -1.41500000   -11.61700000   -12.01400000
O        8.98800000     4.25500000    10.68500000
H        8.25500000     3.95000000    11.21700000
H        9.38400000     4.95800000    11.20200000
O      -10.69400000    -4.96400000     4.29800000
H       -9.98400000    -5.50700000     3.95300000
H      -10.55500000    -4.10500000     3.89900000
O       -1.08500000    -5.30300000   -11.77000000
H       -0.60800000    -6.05000000   -11.41000000
H       -0.46900000    -4.57100000   -11.70700000
O       -4.00900000    -3.71100000   -14.46300000
H       -3.72700000    -3.03100000   -15.07500000
H       -4.09600000    -3.25600000   -13.62400000
O       -8.49200000    13.79000000    -7.54600000
H       -9.06700000    14.32700000    -7.00100000
H       -7.75100000    14.36100000    -7.74900000
O        0.94900000    -8.38400000    -5.95100000
H        0.93000000    -8.38400000    -4.99400000
H        1.85100000    -8.14900000    -6.17200000
O        1.47300000     5.33300000    -5.09700000
H        1.20700000     5.10900000    -5.98800000
H        1.10500000     4.63600000    -4.55400000
O        4.14600000     4.69400000    -1.24900000
H        4.96200000     4.81300000    -0.76400000
H        4.35200000     4.97600000    -2.14000000
O       -7.33300000    -0.04800000    -0.83200000
H       -7.94900000    -0.33500000    -0.15800000
H       -6.97800000    -0.86100000    -1.19300000
O        7.46800000    -3.01500000    -6.24400000
H        7.51300000    -2.06400000    -6.33600000
H        8.12700000    -3.34700000    -6.85400000
O      -13.11400000   -13.15900000    -2.55900000
H      -13.02000000   -13.59800000    -3.40400000
H      -12.90900000   -12.24200000    -2.74000000
O       -4.89300000    -1.43300000     5.76400000
H       -4.77800000    -2.38200000     5.75200000
H       -4.46600000    -1.13000000     4.96200000
O       -8.81200000    -3.86100000    13.41500000
H       -8.00500000    -3.78700000    13.92300000
H       -9.49400000    -4.02000000    14.06800000
O       -4.54700000    -6.45200000   -11.99200000
H       -3.89000000    -6.39100000   -12.68500000
H       -4.09600000    -6.14300000   -11.20600000
O       -9.98300000     0.42400000     8.19000000
H      -10.12600000     0.90400000     7.37400000
H       -9.71900000     1.09500000     8.81900000
O      -11.77500000     1.46000000    -0.57500000
H      -11.16200000     2.11000000    -0.23300000
H      -12.44500000     1.38000000     0.10400000
O       -4.71700000   -13.37500000    -5.77200000
H       -3.80400000   -13.21200000    -6.00900000
H       -4.67400000   -13.74100000    -4.88900000
O       -2.17400000    -5.60400000    -7.89400000
H       -1.76600000    -6.04000000    -8.64300000
H       -2.07200000    -6.22300000    -7.17100000
O        5.99100000    -0.44100000    -4.08000000
H        5.78000000    -0.02300000    -3.24500000
H        5.14100000    -0.64000000    -4.47100000
O        3.56000000    -4.18300000    12.65900000
H        3.25000000    -4.12300000    11.75600000
H        4.50800000    -4.06900000    12.59500000
O       -9.62400000    -2.79700000     3.20700000
H       -8.85800000    -3.27900000     2.89500000
H      -10.00100000    -2.40900000     2.41700000
O      -10.22000000    -8.00500000     6.15700000
H      -10.31400000    -8.27900000     5.24300000
H      -10.23000000    -7.04900000     6.12200000
O        2.10900000    -6.15900000     6.97400000
H        1.43600000    -6.73300000     6.60800000
H        2.69400000    -6.74700000     7.45000000
O        2.64400000   -13.68100000     2.43400000
H        2.45500000   -12.83100000     2.83200000
H        1.90200000   -14.23200000     2.68200000
O      -10.33400000     9.65300000    -1.80500000
H       -9.50800000    10.08500000    -2.02800000
H      -10.81600000    10.30500000    -1.29700000
O       -8.60400000    -0.13700000    -3.49500000
H       -9.22300000     0.38100000    -4.00800000
H       -8.69400000     0.19600000    -2.60200000
O       -1.24900000     1.17800000    -6.43400000
H       -1.31100000     0.94500000    -7.36000000
H       -1.91000000     1.85900000    -6.31200000
O       -6.18800000   -10.85700000    -6.32600000
H       -5.82700000   -10.54200000    -7.15400000
H       -5.70900000   -11.66800000    -6.14900000
O       -5.46800000    14.96200000     4.61500000
H       -5.56900000    14.32300000     3.91000000
H       -4.91700000    15.64900000     4.24000000
O       -8.79200000    11.17800000     0.84600000
H       -9.71300000    11.40600000     0.72100000
H       -8.43400000    11.13200000    -0.04000000
O      -10.51800000    -6.95500000    -8.38000000
H      -11.09000000    -6.66500000    -7.67000000
H      -10.36700000    -6.17000000    -8.90500000
O        6.24000000    -6.87400000     2.91500000
H        5.79900000    -6.55500000     3.70200000
H        6.60600000    -6.08700000     2.51000000
O      -11.14300000    14.20000000    -0.55000000
H      -11.23800000    13.73500000    -1.38200000
H      -10.61300000    14.96800000    -0.76200000
O       -7.04400000     0.59400000   -14.37700000
H       -6.55200000    -0.09000000   -13.92200000
H       -6.54000000     1.39400000   -14.22700000
O       -4.91800000   -12.11200000    -9.29700000
H       -4.06900000   -12.26100000    -8.87900000
H       -4.89000000   -12.64100000   -10.09400000
O       -5.66400000     1.40300000     0.67200000
H       -5.96100000     1.01400000     1.49400000
H       -6.28700000     1.08600000     0.01800000
O       10.25500000    -4.28700000     7.49600000
H        9.71600000    -4.85600000     8.04500000
H        9.65700000    -3.59700000     7.20500000
O       -1.69800000    -8.91700000     5.96600000
H       -1.42300000    -8.00300000     5.89600000
H       -1.23500000    -9.24700000     6.73600000
O       -0.69800000    -4.97700000    14.15800000
H        0.02900000    -5.53700000    14.42900000
H       -0.33600000    -4.44200000    13.45100000
O        0.31700000    -7.87900000    13.11000000
H        0.54200000    -7.95400000    14.03700000
H       -0.54000000    -8.29900000    13.03600000
O        5.08600000     2.02500000    -8.14500000
H        4.93600000     2.80100000    -8.68500000
H        4.44000000     2.09300000    -7.44200000
O       10.23600000     0.32400000    -5.35100000
H       10.62500000    -0.40900000    -4.87300000
H       10.63800000     0.28600000    -6.21900000
O       -8.94800000    -3.44600000    -2.65200000
H       -9.18000000    -3.22700000    -1.74900000
H       -8.10500000    -3.01500000    -2.79300000
O       14.38100000   -12.62800000    -1.35800000
H       14.49900000   -12.27300000    -0.47700000
H       15.26900000   -12.76800000    -1.68300000
O        0.65700000    -7.13400000    -1.36800000
H        0.81600000    -7.85400000    -1.97800000
H        1.53000000    -6.86800000    -1.07900000
O       -0.74800000    12.75200000    -3.73300000
H       -1.07800000    12.64100000    -2.84100000
H       -1.47700000    13.14800000    -4.21100000
O      -13.49000000     2.81600000    14.51100000
H      -12.78500000     3.10200000    15.09100000
H      -13.04300000     2.37400000    13.79000000
O      -12.21400000    -1.56200000    -3.42100000
H      -11.72300000    -1.67800000    -2.60700000
H      -12.29700000    -0.61400000    -3.51800000
O      -10.60900000    -4.02400000    -4.74700000
H      -11.33200000    -3.41300000    -4.61100000
H      -10.00300000    -3.84300000    -4.02700000
O      -12.22000000   -12.72700000    -5.45200000
H      -12.77000000   -11.98900000    -5.72000000
H      -12.80800000   -13.48200000    -5.47100000
O      -11.67000000     1.09500000    -3.34200000
H      -11.71500000     1.16500000    -2.38800000
H      -11.58200000     1.99900000    -3.64500000
O        1.02100000    -2.93300000    13.08700000
H        1.85800000    -3.39300000    13.15900000
H        1.22300000    -2.02800000    13.32900000
O       -5.19500000     0.93600000   -11.06400000
H       -4.92400000     0.80400000   -10.15500000
H       -4.78400000     1.76100000   -11.31900000
O       -6.64600000     3.28900000     2.33200000
H       -6.87700000     2.58100000     2.93400000
H       -6.44800000     2.84500000     1.50700000
O       -6.67000000   -13.94500000    -0.87500000
H       -6.50300000   -13.19200000    -1.44200000
H       -6.10500000   -13.80200000    -0.11400000
O       -2.36000000     8.44400000   -10.90600000
H       -3.11900000     7.92700000   -11.17700000
H       -1.61500000     8.01100000   -11.32200000
O      -10.83500000    13.27100000    -8.82800000
H      -11.15800000    14.12700000    -9.11300000
H       -9.95100000    13.44400000    -8.50600000
O      -12.56700000     7.13600000     2.92100000
H      -11.84800000     6.81300000     2.38000000
H      -12.38300000     8.06800000     3.03700000
O        4.30100000    -6.64800000    -8.96900000
H        5.21900000    -6.61800000    -8.69800000
H        4.15500000    -7.56100000    -9.21800000
O       -8.88700000     1.08200000   -10.62600000
H       -8.09500000     0.64700000   -10.94000000
H       -9.07200000     0.66500000    -9.78400000
O        0.94500000    -3.34500000   -11.21500000
H        1.76500000    -3.82100000   -11.09200000
H        0.77400000    -2.93600000   -10.36500000
O       -7.95500000    -4.58700000     1.97400000
H       -7.01900000    -4.78400000     1.93600000
H       -8.35900000    -5.39800000     2.28300000
O       -5.58800000     4.73500000     7.16200000
H       -4.82300000     4.40000000     6.69100000
H       -5.34300000     5.62400000     7.41700000
O       -5.80200000     5.42100000   -13.33900000
H       -6.40700000     4.78300000   -12.96100000
H       -5.91800000     6.20600000   -12.80500000
O       -1.24600000   -14.43200000    -9.81300000
H       -0.42900000   -14.45300000    -9.31600000
H       -0.97200000   -14.48600000   -10.73000000
O       -6.55900000     2.32700000    -5.25500000
H       -6.57800000     3.24500000    -5.52700000
H       -6.69300000     2.35500000    -4.30700000
O       -2.82900000    -6.12500000   -14.12000000
H       -3.21700000    -5.29400000   -14.39200000
H       -1.88500000    -5.97000000   -14.14600000
O       -0.63500000     5.71100000     4.92600000
H       -1.50800000     5.52400000     5.27100000
H       -0.57600000     5.18500000     4.12800000
O       -5.90800000    -0.16900000    -4.42600000
H       -6.79100000    -0.32400000    -4.08900000
H       -5.96000000     0.69000000    -4.84600000
O       11.08600000     0.58100000     0.65700000
H       11.90500000     0.45600000     0.17800000
H       11.14100000    -0.03100000     1.39000000
O        0.04200000    -9.96600000    -8.20200000
H        0.59800000   -10.74100000    -8.27100000
H        0.57800000    -9.32700000    -7.73200000
O        0.05000000     3.37800000    13.90300000
H        0.33400000     4.25300000    13.63500000
H        0.57100000     3.18800000    14.68400000
O       -6.96200000    -1.74400000    11.82900000
H       -7.19100000    -2.26000000    12.60300000
H       -6.26400000    -1.16000000    12.12700000
O        4.11600000     3.65000000    14.60400000
H        4.48400000     2.76800000    14.55300000
H        4.80700000     4.21900000    14.26700000
O       12.76300000    -2.51500000    -2.28700000
H       12.27800000    -3.33500000    -2.20000000
H       13.62600000    -2.77800000    -2.60600000
O        5.11400000    -4.04300000    -6.11900000
H        6.01700000    -3.73400000    -6.19700000
H        4.59900000    -3.40700000    -6.61600000
O       -1.01400000    -2.95500000    -6.62700000
H       -1.73200000    -2.54900000    -6.14100000
H       -1.29900000    -3.85900000    -6.76400000
O      -10.25800000   -15.02600000    -5.78600000
H       -9.73600000   -14.66600000    -5.06900000
H      -10.98200000   -14.40800000    -5.88900000
O      -11.49200000     0.29200000    -6.94300000
H      -12.09000000     0.41800000    -7.67900000
H      -11.96500000    -0.28900000    -6.34700000
O       -1.19800000    -4.74800000     0.48300000
H       -0.57200000    -4.03400000     0.60300000
H       -0.67900000    -5.46100000     0.10800000
O       14.11200000    -8.24400000     0.17900000
H       13.90500000    -8.65500000    -0.65900000
H       13.28800000    -7.84500000     0.46000000
O       -8.33900000    -2.46600000     5.86300000
H       -8.92600000    -2.35900000     5.11500000
H       -7.88200000    -1.62700000     5.93100000
O      -12.49600000   -12.56200000     0.08200000
H      -12.70400000   -12.98100000    -0.75400000
H      -11.93100000   -11.82500000    -0.15300000
O        5.66300000   -13.80400000    -0.54400000
H        6.55500000   -13.93100000    -0.87000000
H        5.63800000   -12.88700000    -0.26900000
O       -1.73700000     3.19600000   -10.22700000
H       -1.86400000     3.48200000    -9.32300000
H       -0.80400000     3.33100000   -10.39300000
O       -3.48200000    -1.76400000    -5.30700000
H       -3.19700000    -1.81000000    -4.39500000
H       -4.22100000    -1.15700000    -5.29800000
O       -9.40100000     1.60100000   -13.69400000
H       -8.49200000     1.40600000   -13.46500000
H       -9.59500000     1.01600000   -14.42500000
O       -8.72900000   -13.70000000    -4.09900000
H       -7.98100000   -13.10500000    -4.05500000
H       -9.48800000   -13.14600000    -3.91500000
O       -0.65300000    -5.69400000    -4.90600000
H       -1.60400000    -5.76800000    -4.98800000
H       -0.31300000    -6.47700000    -5.34000000
O       -0.84900000     0.99800000     4.97700000
H       -1.30700000     0.61000000     4.23100000
H       -0.53700000     1.84400000     4.65300000
O        3.27400000   -10.21800000   -14.60400000
H        2.36200000    -9.95000000   -14.48900000
H        3.50800000   -10.63600000   -13.77500000
O       -8.60800000    -3.24000000   -11.81200000
H       -9.42800000    -2.74700000   -11.84900000
H       -7.97000000    -2.61800000   -11.46300000
O        6.09500000    -3.03500000     2.66200000
H        6.64100000    -3.74900000     2.33200000
H        6.22100000    -2.32500000     2.03400000
O        1.40600000    -4.24900000    -5.35600000
H        0.61700000    -4.63800000    -4.97900000
H        1.64300000    -4.83300000    -6.07500000
O       -2.81000000    -3.05400000   -11.79800000
H       -3.09500000    -3.03300000   -10.88500000
H       -2.40600000    -3.91600000   -11.90400000
O       -4.08700000     3.18200000    -2.62000000
H       -5.01900000     3.01800000    -2.47700000
H       -4.00600000     4.13500000    -2.61500000
O        2.11200000     5.57200000     1.03100000
H        2.85100000     4.97700000     0.90000000
H        2.03000000     6.04000000     0.20000000
O       -8.30800000   -11.11700000    -8.66000000
H       -7.86600000   -10.83500000    -7.86000000
H       -7.91300000   -10.58800000    -9.35300000
O        3.13200000    -4.32500000     9.77500000
H        2.36000000    -4.78700000     9.44700000
H        3.86900000    -4.74100000     9.32900000
O        6.30200000     1.82200000   -13.45200000
H        6.66000000     2.69500000   -13.61100000
H        5.71500000     1.93500000   -12.70600000
O       12.46200000    -1.90900000     1.59200000
H       12.81100000    -2.49400000     2.26400000
H       11.78100000    -2.42000000     1.15700000
O       13.79200000    -4.06100000    -5.29700000
H       14.20600000    -3.82100000    -4.46800000
H       14.21100000    -3.49800000    -5.94700000
O        0.20900000    11.57400000    -6.07100000
H        0.14600000    11.82900000    -5.15000000
H        0.15700000    10.61700000    -6.05800000
O       -8.25800000    -5.75500000    -5.27000000
H       -9.03600000    -5.20000000    -5.32700000
H       -8.49700000    -6.55300000    -5.74200000
O        3.28400000    -4.80000000   -10.59800000
H        3.87400000    -4.05600000   -10.47300000
H        3.53600000    -5.42300000    -9.91700000
O       -8.79500000     4.35400000    -4.44100000
H       -9.45800000     4.59800000    -3.79600000
H       -9.26800000     3.81700000    -5.07800000
O       -4.15700000   -10.15900000    -3.85300000
H       -4.24300000    -9.48800000    -4.53100000
H       -3.31000000    -9.98100000    -3.44500000
O       -6.31700000     8.46800000    -1.75200000
H       -5.52600000     8.93900000    -2.01600000
H       -7.03600000     9.00200000    -2.08900000
O       -6.68800000    -1.19500000   -10.65100000
H       -6.00600000    -0.58000000   -10.92200000
H       -6.76400000    -1.06700000    -9.70500000
O       -6.09800000     5.01300000    -3.28100000
H       -6.99800000     4.68800000    -3.31600000
H       -6.18900000     5.95900000    -3.17300000
O       -6.18400000    14.55400000   -10.21800000
H       -5.43000000    14.82100000   -10.74500000
H       -6.02800000    14.95000000    -9.36100000
O      -10.65200000    12.26100000    -4.98500000
H       -9.71700000    12.05200000    -4.98300000
H      -10.69000000    13.19200000    -5.20300000
O        3.16700000    -9.19900000    -8.61800000
H        4.08300000    -9.38400000    -8.82000000
H        2.67800000    -9.58900000    -9.34200000
O       10.13000000    -7.56600000    -6.32800000
H       10.24000000    -8.26400000    -6.97300000
H       10.80800000    -6.92800000    -6.54800000
O       -5.04000000    -3.15400000    -7.06200000
H       -4.28700000    -2.71700000    -6.66500000
H       -5.41200000    -3.68200000    -6.35600000
O        3.15000000    -3.66300000     6.13400000
H        2.88800000    -4.49900000     6.51900000
H        2.33400000    -3.17300000     6.04200000
O        1.71700000   -11.36700000     4.10900000
H        2.42000000   -10.71600000     4.10700000
H        1.50700000   -11.48900000     5.03600000
O       -3.04500000    -6.86900000     8.66800000
H       -2.77100000    -7.50200000     9.33300000
H       -2.75900000    -6.02300000     9.01300000
O        3.64900000    -6.36000000     2.07800000
H        3.50500000    -5.54500000     2.55900000
H        4.56500000    -6.58000000     2.24700000
O       -6.86600000    -5.29100000   -13.03700000
H       -5.99100000    -5.60100000   -12.80400000
H       -7.32000000    -5.20200000   -12.19800000
O       -7.22300000    -5.44200000    11.55100000
H       -7.61100000    -4.84500000    12.19100000
H       -6.82100000    -4.86700000    10.89900000
O       -1.20200000    -6.63500000     2.84300000
H       -2.11800000    -6.52200000     3.10000000
H       -0.97200000    -5.81600000     2.40700000
O       12.44300000    -1.50500000    -8.36200000
H       11.52300000    -1.27200000    -8.48400000
H       12.84100000    -0.72100000    -7.98400000
O       -9.29800000    -5.15900000     6.60600000
H      -10.20200000    -4.91200000     6.80000000
H       -8.80800000    -4.33900000     6.66000000
O        1.00900000    -1.34900000     6.57000000
H        0.23900000    -0.78400000     6.51500000
H        1.05500000    -1.60200000     7.49200000
O       -9.31400000    -9.14500000   -10.39800000
H       -8.75200000    -8.40200000   -10.62100000
H       -9.56300000    -8.99200000    -9.48600000
O        6.81000000     5.89600000     6.72400000
H        6.84000000     6.85000000     6.65100000
H        6.52700000     5.59800000     5.86000000
O        1.50900000    -2.21100000     9.38900000
H        2.26200000    -2.61400000     9.82100000
H        0.81800000    -2.87300000     9.44400000
O        5.61700000    -2.31300000     6.58200000
H        4.87600000    -2.28800000     7.18500000
H        5.34300000    -1.77200000     5.84100000
O        8.89600000    -3.72000000   -11.59700000
H        8.00500000    -3.37400000   -11.61500000
H        9.42200000    -3.05200000   -12.03800000
O       -6.81000000    11.03300000     8.77200000
H       -6.16200000    11.23500000     8.09900000
H       -7.61700000    10.86500000     8.28600000
O        3.72700000    -0.22500000     5.78700000
H        4.15000000     0.19600000     6.53700000
H        2.83500000    -0.40400000     6.08600000
O        0.28600000     0.17000000     9.01600000
H        0.94100000     0.72400000     8.59100000
H        0.79700000    -0.49700000     9.47500000
O        5.43600000     2.41800000     2.31900000
H        6.16700000     3.02200000     2.18000000
H        5.57400000     2.07300000     3.20100000
O        3.03300000    -5.98100000    -0.40700000
H        3.51800000    -5.15600000    -0.40500000
H        3.07300000    -6.28500000     0.50000000
O        2.36900000   -10.70500000   -11.24400000
H        2.63300000   -11.56800000   -10.92500000
H        1.64300000   -10.88300000   -11.84300000
O       -2.54700000    -1.94600000     8.54300000
H       -1.89400000    -1.83900000     7.85100000
H       -2.86200000    -1.05800000     8.71400000
O       -5.39000000   -10.24700000     1.74100000
H       -6.21200000   -10.23000000     1.25100000
H       -5.65900000   -10.28600000     2.65900000
O       -4.40500000    -5.10900000    -2.34000000
H       -3.84900000    -5.88100000    -2.44800000
H       -4.50800000    -5.01800000    -1.39200000
O       -3.17100000    -4.34100000     9.69500000
H       -2.91500000    -3.50700000     9.29700000
H       -3.93700000    -4.62100000     9.19400000
O       14.14000000    -7.72400000   -12.65100000
H       14.17900000    -8.01800000   -11.74000000
H       14.84900000    -8.19900000   -13.08500000
O       -1.85800000    -8.90000000    10.91800000
H       -2.46800000    -8.19500000    11.13600000
H       -2.40000000    -9.56400000    10.49200000
O        7.38400000    -5.60900000    14.54600000
H        8.26900000    -5.96800000    14.49300000
H        6.81000000    -6.36400000    14.42100000
O        3.14700000    -9.19500000     3.41400000
H        4.05000000    -9.37600000     3.15100000
H        3.09500000    -8.24000000     3.45700000
O        1.20600000     4.41200000     9.92800000
H        0.89800000     3.84200000    10.63300000
H        2.16000000     4.39500000    10.00500000
O       -2.38000000     2.84200000     3.53700000
H       -3.09100000     2.79100000     2.89600000
H       -1.73000000     3.41500000     3.12900000
O        6.88600000    -4.90300000    -1.38000000
H        6.11200000    -4.48100000    -1.00900000
H        7.01000000    -4.47700000    -2.22800000
O      -11.64700000    -2.12300000    10.67100000
H      -11.15500000    -2.27100000     9.86300000
H      -11.95800000    -2.99200000    10.92600000
O       -0.01000000    14.24400000    11.76200000
H        0.68300000    14.77700000    11.37200000
H       -0.35200000    14.78100000    12.47700000
O       -9.01600000     8.62400000   -14.85600000
H       -8.59500000     8.87300000   -14.03300000
H       -8.30600000     8.26900000   -15.39000000
O      -11.66200000     3.27200000   -13.50500000
H      -11.53300000     4.22100000   -13.47600000
H      -10.81700000     2.92300000   -13.78700000
O       -9.02600000    -6.82100000     3.31400000
H       -8.42700000    -7.11700000     4.00000000
H       -9.50200000    -7.61000000     3.05400000
O       -8.77900000    -8.73200000     8.23800000
H       -8.82600000    -9.68800000     8.22300000
H       -9.43200000    -8.44900000     7.59800000
O      -11.13500000    -2.21400000   -11.66300000
H      -11.96800000    -2.58200000   -11.36600000
H      -11.22800000    -1.27100000   -11.52800000
O       -2.61000000   -12.70700000    10.71600000
H       -2.79500000   -12.65400000    11.65400000
H       -3.01500000   -11.92400000    10.34600000
O      -11.21800000    -5.39300000    12.20900000
H      -10.98200000    -6.27900000    11.93500000
H      -10.59300000    -5.18100000    12.90200000
O        5.42500000   -11.15900000     0.08900000
H        5.91700000   -10.49500000    -0.39400000
H        4.57400000   -11.19000000    -0.34600000
O       -5.54000000    14.69400000     7.56600000
H       -4.75500000    15.23800000     7.61600000
H       -5.52200000    14.32700000     6.68200000
O       -4.40000000     1.92600000    11.29700000
H       -4.07700000     1.38900000    10.57300000
H       -4.15500000     2.82000000    11.06000000
O       -8.99400000    -8.43400000    13.02600000
H       -8.41700000    -8.21200000    12.29700000
H       -8.46000000    -8.28900000    13.80700000
O       -5.66700000    -4.89600000     8.46400000
H       -6.32500000    -4.30300000     8.82700000
H       -6.15300000    -5.69200000     8.24900000
O      -12.05400000    -5.80800000    -2.28300000
H      -12.56500000    -5.18700000    -1.76500000
H      -12.70600000    -6.38900000    -2.67300000
O       -4.57000000   -13.23200000   -11.52600000
H       -5.12000000   -13.16200000   -12.30800000
H       -3.71600000   -12.90200000   -11.80500000
O        0.86700000    10.55500000    11.34800000
H        0.13200000    10.00200000    11.08300000
H        1.40000000    10.63900000    10.55600000
O       -7.53500000    -7.85600000    10.60200000
H       -8.01600000    -7.97000000     9.78400000
H       -7.41600000    -6.91000000    10.68200000
O       -0.37900000    -4.17600000    10.06100000
H       -1.21700000    -4.31000000     9.61900000
H       -0.08000000    -5.05800000    10.28200000
O       10.07700000    -8.92600000     2.20800000
H        9.13900000    -8.96600000     2.02600000
H       10.49200000    -9.25500000     1.41000000
O       -9.53400000    -3.52600000     0.18000000
H      -10.29700000    -3.94600000     0.57400000
H       -8.78400000    -3.97300000     0.57500000
O        1.61500000     2.85100000     3.71200000
H        1.78000000     3.53800000     3.06600000
H        1.97700000     2.05800000     3.31600000
O       -3.26700000   -13.58200000     7.42600000
H       -2.89300000   -13.70100000     8.29900000
H       -2.51700000   -13.37600000     6.86800000
O      -10.31600000   -12.96100000     7.65300000
H       -9.64600000   -12.40900000     8.05600000
H      -10.93700000   -12.34100000     7.27000000
O       -6.88800000     1.54800000    -7.87400000
H       -7.07500000     0.61800000    -7.74900000
H       -6.85700000     1.90900000    -6.98800000
O       -5.14400000    -0.15100000    13.05300000
H       -4.72100000     0.61500000    12.66200000
H       -5.63000000     0.19900000    13.80000000
O      -12.91500000   -14.37000000    13.99800000
H      -12.11500000   -13.92400000    14.27600000
H      -13.58200000   -13.68300000    13.99000000
O       -1.95900000    -2.78200000     4.01900000
H       -2.46100000    -3.57200000     3.82300000
H       -2.03800000    -2.24500000     3.23100000
O      -11.65100000    12.96100000    13.63200000
H      -11.42500000    12.76700000    12.72100000
H      -11.78500000    13.90700000    13.64900000
O       -5.86700000     4.28400000    13.93400000
H       -5.63000000     3.76900000    14.70700000
H       -6.46300000     4.95500000    14.26700000
O       -3.87800000   -10.48600000     9.76800000
H       -4.77700000   -10.42300000    10.09100000
H       -3.96800000   -10.53200000     8.81600000
O       -6.53100000    -3.58700000    14.57900000
H       -5.58300000    -3.45800000    14.58700000
H       -6.70000000    -4.17400000    15.31700000
O       -7.27900000    -6.74900000     7.60100000
H       -7.68600000    -7.60700000     7.71900000
H       -7.79200000    -6.33300000     6.90700000
O       -8.73100000   -12.50900000    14.71400000
H       -9.28700000   -12.58200000    15.48800000
H       -9.21500000   -12.96800000    14.02700000
O       14.24400000   -15.09100000    12.43000000
H       14.61300000   -14.34700000    12.90500000
H       14.76900000   -15.15200000    11.63200000
O        4.13700000   -11.46500000     7.41200000
H        4.16800000   -12.37900000     7.69600000
H        4.64700000   -11.44800000     6.60100000
O       -1.65600000    -0.59400000   -11.69700000
H       -1.26000000    -0.31900000   -12.52300000
H       -2.08800000    -1.42200000   -11.90200000
O       -0.03200000   -13.35200000     9.39000000
H        0.60900000   -13.44500000    10.09500000
H       -0.79900000   -12.96600000     9.81300000
O       -5.47000000    -4.16300000     5.86200000
H       -6.39400000    -4.00600000     5.66900000
H       -5.46200000    -4.45200000     6.77600000
O       -6.50100000     2.15700000     8.65100000
H       -5.62100000     2.07200000     9.01700000
H       -6.71500000     3.08600000     8.75300000
O       -7.47900000    -6.99000000    -9.55200000
H       -8.04800000    -6.23800000    -9.38700000
H       -6.72100000    -6.84600000    -8.98600000
O        6.37400000    -5.35600000   -12.92400000
H        6.84300000    -5.97900000   -12.36900000
H        6.85400000    -5.36500000   -13.75300000
O       -9.79500000     3.85700000    -8.44700000
H       -9.39800000     4.70300000    -8.23400000
H       -9.28100000     3.53100000    -9.18500000
O      -13.81200000    14.13800000   -13.72100000
H      -13.51200000    14.64900000   -14.47300000
H      -13.65200000    13.22800000   -13.97100000
O       -7.78100000   -10.42600000     0.53300000
H       -8.26300000    -9.87300000    -0.08200000
H       -8.40800000   -10.61100000     1.23200000
O        0.56100000    -6.71700000    10.39500000
H       -0.15300000    -7.34900000    10.46600000
H        1.03200000    -6.79200000    11.22500000
O        1.46200000     1.83900000    -8.02500000
H        0.75700000     1.54600000    -8.60300000
H        1.02000000     2.08100000    -7.21100000
O      -13.07300000    -5.33500000    10.26700000
H      -12.36400000    -5.45900000    10.89900000
H      -12.63700000    -5.02800000     9.47400000
O        0.75300000   -14.83500000    -1.70900000
H        1.41800000   -15.48500000    -1.48000000
H        0.89800000   -14.11600000    -1.09500000
O        9.33700000     4.38500000     6.47100000
H        9.59500000     3.50000000     6.73400000
H        8.48200000     4.51600000     6.88300000
O       -0.29400000     3.20000000    -4.19800000
H       -0.31900000     3.14700000    -3.24300000
H       -0.40300000     2.29300000    -4.49000000
O       -9.57500000   -10.99000000    11.93500000
H      -10.50300000   -10.85500000    11.74400000
H       -9.34100000   -10.26600000    12.51500000
O      -10.12200000    -2.23400000     8.40600000
H      -10.16300000    -1.28800000     8.54900000
H       -9.80600000    -2.32800000     7.50800000
O        6.85100000   -12.71700000     9.36700000
H        6.50500000   -12.88000000     8.49100000
H        6.75200000   -13.55200000     9.82500000
O       -0.05700000     8.14700000    -4.77200000
H        0.13100000     8.61200000    -5.58800000
H        0.06600000     7.22400000    -4.98900000
O        7.60300000     2.81600000     8.87000000
H        7.49200000     2.03100000     9.40700000
H        8.02600000     3.44700000     9.45100000
O       -4.97400000     2.26800000   -14.29400000
H       -4.20900000     1.89400000   -14.73000000
H       -4.61200000     2.76600000   -13.56000000
O       -5.04700000    12.83200000    10.03400000
H       -5.23300000    12.58100000     9.12900000
H       -4.30000000    13.42600000     9.97000000
O       -7.47900000    -3.18000000     9.45500000
H       -8.32000000    -2.85900000     9.12700000
H       -7.13000000    -2.45400000     9.97200000
O      -14.52400000    -6.18800000     5.43300000
H      -14.80800000    -6.99100000     5.86800000
H      -14.71000000    -5.49300000     6.06400000
O       -3.32500000    -5.06600000     3.81700000
H       -3.93900000    -5.72400000     3.49200000
H       -3.47700000    -5.04100000     4.76200000
O       -0.30300000     5.93900000   -13.88700000
H       -1.17300000     6.22500000   -14.16600000
H        0.15900000     5.74500000   -14.70200000
O       -3.91300000    -5.02900000     0.41700000
H       -2.98000000    -4.83600000     0.32300000
H       -3.94300000    -5.80700000     0.97300000
O      -11.13300000    -7.80500000    11.10500000
H      -10.33400000    -8.32400000    11.18900000
H      -11.27900000    -7.74000000    10.16200000
O        5.13700000     0.75400000    -1.85100000
H        5.89700000     0.70500000    -1.27000000
H        4.60400000    -0.00500000    -1.61200000
O      -13.70000000    -0.81600000    14.70100000
H      -13.15200000    -0.05100000    14.51900000
H      -13.74200000    -0.85800000    15.65600000
O       -3.34400000    -1.80200000    13.94600000
H       -3.98400000    -1.25500000    13.49100000
H       -2.78600000    -2.14800000    13.24900000
O       13.74200000   -13.67900000     2.83400000
H       13.68500000   -14.60300000     3.07800000
H       13.68900000   -13.20800000     3.66500000
O        2.27200000     1.61800000     7.69100000
H        2.11700000     2.54200000     7.89300000
H        3.17300000     1.59200000     7.36800000
O       12.24000000    -3.08800000   -13.07800000
H       12.23100000    -2.51200000   -12.31100000
H       12.94400000    -3.71200000   -12.90200000
O        1.14400000   -11.68400000   -13.44500000
H        1.70300000   -12.46000000   -13.48300000
H        0.79900000   -11.59300000   -14.33300000
O      -13.81500000   -11.57800000     9.02200000
H      -14.13400000   -12.45500000     8.81000000
H      -13.05200000   -11.45700000     8.45500000
O       -0.79700000     4.72500000     2.31200000
H       -0.87000000     5.53000000     1.79900000
H        0.01500000     4.31900000     2.00700000
O       -4.17100000    -7.81800000     0.98900000
H       -4.14600000    -8.67200000     1.42100000
H       -4.55000000    -7.99600000     0.12800000
O        1.22000000    12.65000000     5.99100000
H        0.77100000    11.95100000     5.51600000
H        0.60800000    12.90400000     6.68100000
O        0.86800000   -10.80700000    11.17600000
H        0.17300000   -10.14900000    11.18800000
H        1.10100000   -10.89500000    10.25300000
O       -5.31200000    -6.91200000    13.31900000
H       -5.88800000    -6.81900000    12.56000000
H       -4.50300000    -6.47000000    13.06200000
O       -6.74300000    -7.89900000     4.79800000
H       -6.76600000    -8.85500000     4.77100000
H       -5.90300000    -7.69000000     5.20800000
O        2.20800000    14.94800000    -9.26000000
H        2.06000000    14.21300000    -8.66400000
H        1.92600000    14.62500000   -10.11500000
O       -4.86000000    12.23300000    -9.53700000
H       -5.75800000    12.45200000    -9.79100000
H       -4.32200000    12.54700000   -10.26400000
O        3.73900000    14.40000000    13.39100000
H        3.25300000    13.58200000    13.28800000
H        4.04000000    14.38900000    14.29900000
O      -13.56800000    -8.94200000    -5.29700000
H      -14.04100000    -8.67500000    -6.08500000
H      -12.76900000    -8.41500000    -5.30600000
O       -3.53800000     7.91200000     5.84400000
H       -3.50500000     6.96400000     5.96700000
H       -4.16900000     8.04000000     5.13500000
O       -3.60300000    10.71100000    -7.61300000
H       -3.79600000    11.19400000    -6.81000000
H       -3.93000000    11.27400000    -8.31500000
O      -12.01500000     3.78700000    -3.96200000
H      -11.50600000     4.33400000    -3.36400000
H      -11.63500000     3.95700000    -4.82400000
O       -0.72300000     0.53600000    -9.14700000
H       -0.57200000    -0.40100000    -9.26100000
H       -1.30700000     0.77400000    -9.86700000
O      -12.52200000   -10.31900000    -2.84800000
H      -12.99800000    -9.97800000    -3.60500000
H      -12.84600000    -9.80500000    -2.10900000
O       -4.96800000    13.07500000    -6.32200000
H       -5.26800000    13.06700000    -7.23000000
H       -5.54300000    13.70300000    -5.88500000
O       -2.96200000     5.39300000     6.33200000
H       -3.06900000     4.52000000     5.95500000
H       -2.34800000     5.26700000     7.05700000
O       13.36200000    10.89400000    -2.73300000
H       13.55900000    11.73600000    -2.32000000
H       12.40900000    10.88300000    -2.81300000
O       -0.83000000    -8.25600000   -12.46800000
H       -1.62300000    -7.79300000   -12.74400000
H       -1.13900000    -8.90200000   -11.83200000
O       -9.69100000    14.52500000     3.30600000
H       -9.55600000    14.67400000     4.24200000
H      -10.07500000    15.34100000     2.98600000
O       -4.18400000     4.87100000    -8.82800000
H       -4.83400000     4.51900000    -9.43500000
H       -4.69500000     5.38300000    -8.20000000
O       -1.59900000    -9.87000000   -10.27400000
H       -1.00700000    -9.87900000    -9.52200000
H       -2.29200000   -10.48800000   -10.04100000
O      -11.36400000     9.61000000     4.42900000
H      -10.48400000     9.23400000     4.38500000
H      -11.27300000    10.47800000     4.03700000
O      -14.65200000     6.48200000   -10.23900000
H      -13.75900000     6.15900000   -10.35500000
H      -15.20000000     5.84200000   -10.69300000
O        1.07100000    10.88600000   -10.19200000
H        0.95100000    10.10500000   -10.73200000
H        0.23000000    11.00400000    -9.74900000
O       -0.47200000     5.33300000    -1.74700000
H       -0.22900000     6.22000000    -2.01300000
H        0.35500000     4.92300000    -1.49300000
O        2.91800000     6.47700000     6.51100000
H        2.42300000     7.20300000     6.88900000
H        2.51400000     5.69200000     6.88500000
O       -1.84700000     9.97700000     6.96500000
H       -2.20200000     9.25900000     6.44200000
H       -1.36300000    10.51400000     6.33600000
O      -10.01200000     7.49400000     1.64700000
H       -9.41300000     8.24000000     1.67800000
H       -9.47900000     6.74900000     1.92300000
O       -8.89300000     6.40100000    -8.17300000
H       -8.23600000     6.78400000    -7.59100000
H       -9.70900000     6.43900000    -7.67400000
O        2.79500000    12.67600000    -7.19800000
H        1.94900000    12.29400000    -6.96800000
H        3.18200000    12.05400000    -7.81300000
O      -12.38000000     3.79200000    -9.41400000
H      -13.02700000     3.63000000    -8.72600000
H      -11.53500000     3.65600000    -8.98500000
O       -0.38400000    13.78700000    -7.56600000
H        0.06600000    13.15200000    -7.01000000
H       -0.72300000    13.26900000    -8.29600000
O        9.62800000     9.72000000    -0.83200000
H       10.20700000     8.98700000    -1.04000000
H        9.85900000    10.39600000    -1.47000000
O       -8.19400000     3.90900000   -12.55800000
H       -8.78600000     4.52400000   -12.99100000
H       -8.69300000     3.09400000   -12.50300000
O       -8.83800000    12.39300000    15.00000000
H       -9.43400000    12.55500000    14.26800000
H       -9.32900000    11.81400000    15.58500000
O        1.74600000     4.07200000     6.30400000
H        1.81400000     3.36000000     5.66800000
H        1.00400000     4.59400000     6.00400000
O       -7.42500000     8.09300000   -11.54600000
H       -7.11700000     8.85700000   -12.03400000
H       -7.04400000     8.19700000   -10.67400000
O       -4.31400000     8.48200000     2.18000000
H       -5.06200000     8.21100000     2.71200000
H       -4.17600000     7.75500000     1.57200000
O        0.75500000    10.10600000    -0.92400000
H        1.55600000    10.21500000    -1.43600000
H        0.39100000     9.27200000    -1.22400000
O       -5.52300000    -9.55800000    -9.19000000
H       -5.83900000    -9.32500000   -10.06300000
H       -5.27100000   -10.47800000    -9.26300000
O      -10.41800000     5.15100000    -2.36900000
H      -10.84600000     5.96000000    -2.09200000
H       -9.65600000     5.07400000    -1.79300000
O      -11.44400000     0.48800000   -11.72900000
H      -11.05400000     1.14700000   -12.30400000
H      -10.89000000     0.49600000   -10.94700000
O      -10.51100000     2.78600000    -6.00900000
H      -10.45900000     3.16700000    -6.88500000
H      -11.09800000     2.03700000    -6.10700000
O       -3.52600000    14.36700000    -0.83900000
H       -2.73000000    14.02600000    -0.43100000
H       -3.86100000    15.01100000    -0.21300000
O       -3.41900000    14.42800000   -14.18400000
H       -3.54600000    14.10600000   -15.07600000
H       -3.96400000    15.21400000   -14.13400000
O       -4.52700000    -0.65900000     2.99500000
H       -4.98400000    -1.49700000     2.91500000
H       -3.75300000    -0.75500000     2.43900000
O       -7.98500000     9.87100000    -7.91400000
H       -7.37600000     9.38900000    -8.47200000
H       -8.63800000    10.22300000    -8.51900000
O      -13.90900000     2.78200000   -11.86800000
H      -13.31600000     2.83700000   -11.12000000
H      -13.38400000     3.07400000   -12.61400000
O       -7.77700000    11.06000000    -1.92100000
H       -7.92900000    11.99700000    -1.79300000
H       -6.82900000    10.95900000    -1.83700000
O       -4.72100000    10.51000000    -3.42300000
H       -4.63000000    11.20800000    -2.77500000
H       -5.15900000    10.92800000    -4.16500000
O       -1.83400000   -12.94400000    -5.33000000
H       -1.05600000   -13.43900000    -5.07400000
H       -2.05100000   -12.42200000    -4.55800000
O       -3.78400000     7.27700000   -12.99400000
H       -3.81900000     6.39300000   -13.36000000
H       -4.25600000     7.81800000   -13.62700000
O      -14.07500000    -0.25200000   -12.50500000
H      -14.70400000     0.45800000   -12.38600000
H      -13.22400000     0.14800000   -12.32800000
O        1.16300000     8.88700000    -6.99900000
H        1.22400000     8.77800000    -7.94800000
H        2.06700000     9.01500000    -6.71300000
O       -7.01200000     0.64100000     3.28900000
H       -7.30900000     0.61000000     4.19800000
H       -6.23500000     0.08300000     3.27000000
O      -10.32500000     7.56700000    -4.03300000
H      -10.86400000     8.01700000    -3.38200000
H       -9.63400000     8.19400000    -4.24700000
O       -3.06000000     8.26400000    -3.71300000
H       -2.77600000     8.25800000    -4.62700000
H       -3.74000000     8.93700000    -3.67800000
O      -11.38300000     7.35300000    -0.76400000
H      -11.04500000     8.11000000    -1.24500000
H      -10.87200000     7.33600000     0.04600000
O        5.39500000   -11.96300000   -13.52100000
H        5.74300000   -12.64800000   -14.09300000
H        4.53500000   -12.28700000   -13.25500000
O       13.48700000   -12.57400000     5.21200000
H       12.68500000   -12.78700000     5.69100000
H       13.73900000   -11.71000000     5.53800000
O        4.53100000    13.90600000    -5.63100000
H        3.99200000    14.29500000    -4.94200000
H        3.90800000    13.66600000    -6.31700000
O      -13.69800000   -15.00100000    10.79900000
H      -12.91300000   -14.93000000    10.25600000
H      -13.44800000   -14.60700000    11.63500000
O      -13.90900000     1.69100000     0.97900000
H      -14.51200000     1.25800000     1.58200000
H      -14.38300000     2.46700000     0.68000000
O       -7.95100000     9.18300000    -4.95400000
H       -7.85100000    10.09100000    -4.66800000
H       -7.82100000     9.21300000    -5.90100000
O       -4.25700000   -13.55200000     0.78400000
H       -4.09100000   -13.52400000     1.72700000
H       -3.98200000   -12.69200000     0.46700000
O       -3.38100000     4.22400000    10.40200000
H       -2.65000000     4.33500000     9.79400000
H       -3.21000000     4.85700000    11.09900000
O      -11.35900000     4.37700000     3.26200000
H      -12.24800000     4.57100000     3.56200000
H      -10.79500000     4.68200000     3.97300000
O       11.64700000    -6.47500000    -0.23100000
H       11.24200000    -5.60800000    -0.21100000
H       10.91000000    -7.08500000    -0.23800000
O      -11.58500000     6.95000000    -6.75800000
H      -11.27100000     7.70800000    -6.26200000
H      -12.53800000     7.02700000    -6.73700000
O        0.74700000     8.25800000     5.07100000
H        1.31600000     8.11600000     4.31500000
H        0.31100000     7.41800000     5.20400000
O       -7.62800000     6.45400000    -5.66100000
H       -7.42700000     7.21600000    -5.11700000
H       -8.14100000     5.88200000    -5.09100000
O       -2.20600000    11.02500000    14.29600000
H       -2.53100000    10.98100000    15.19500000
H       -2.98900000    11.16600000    13.76400000
O       -2.62400000    13.89100000    -5.23400000
H       -3.46200000    13.54400000    -5.54000000
H       -2.16900000    14.15800000    -6.03300000
O       -3.42000000    11.09900000     1.58800000
H       -2.79600000    11.02900000     0.86600000
H       -3.42000000    10.23000000     1.99000000
O       -3.82400000     3.47600000   -12.17400000
H       -4.01800000     4.40900000   -12.06900000
H       -3.12800000     3.30400000   -11.53900000
O       -1.04600000   -14.55300000   -13.09100000
H       -1.82700000   -14.77600000   -13.59700000
H       -1.04100000   -13.59600000   -13.06500000
O      -11.51600000   -14.41300000   -10.36400000
H      -10.56100000   -14.34600000   -10.37000000
H      -11.81200000   -13.58800000    -9.98000000
O       -5.26900000     6.46000000    -6.96400000
H       -5.87300000     6.48600000    -6.22300000
H       -4.47900000     6.89700000    -6.64600000
O       14.16500000     8.91800000    -4.47600000
H       13.44300000     8.29400000    -4.56600000
H       13.85600000     9.55100000    -3.82900000
O       -4.88400000     0.88000000     6.85600000
H       -5.79400000     1.15600000     6.96400000
H       -4.94100000    -0.02900000     6.56200000
O       -6.69600000     6.32600000    -0.27800000
H       -5.79800000     6.33600000     0.05300000
H       -6.71200000     7.00600000    -0.95100000
O       10.77400000    10.17500000    -6.35500000
H        9.88600000    10.42300000    -6.61400000
H       11.21100000     9.95400000    -7.17800000
O        9.78600000     5.83300000     4.08500000
H       10.63000000     6.09600000     3.71900000
H       10.01100000     5.24000000     4.80400000
O       -6.44900000     4.72900000    10.32500000
H       -6.64200000     4.18900000    11.09100000
H       -5.49500000     4.72900000    10.26500000
O       -1.73900000   -13.69100000    -2.40300000
H       -1.11600000   -14.39100000    -2.20600000
H       -2.58300000   -14.03200000    -2.10800000
O       15.15200000    11.90000000    -5.98900000
H       14.54600000    11.20300000    -6.24200000
H       15.74200000    11.48800000    -5.35700000
O       -1.41600000    11.02500000    -9.37400000
H       -1.61200000    10.86000000    -8.45200000
H       -2.17700000    10.68800000    -9.84600000
O       -0.72200000     8.20000000    -2.18700000
H       -1.62900000     8.12300000    -2.48500000
H       -0.21500000     8.31600000    -2.99000000
O       -6.72400000     8.20500000     9.66200000
H       -6.05900000     7.70500000     9.18900000
H       -6.73500000     9.06000000     9.22800000
O       14.12900000    13.96700000     4.61000000
H       14.65900000    13.80300000     5.38900000
H       13.22600000    13.84400000     4.90400000
O       -7.49000000   -12.81100000     4.85900000
H       -6.93800000   -13.57600000     4.70200000
H       -8.24100000   -13.15200000     5.34600000
O        1.97600000    -2.71200000   -13.74200000
H        1.45400000    -1.95800000   -14.01400000
H        1.54200000    -3.03100000   -12.94900000
O       -3.24600000     0.86900000     9.00500000
H       -2.60200000     1.39400000     8.52900000
H       -3.90400000     0.64200000     8.34900000
O       -0.18900000    -2.14400000    -9.06600000
H       -0.31700000    -2.32100000    -8.13400000
H       -1.07200000    -2.15400000    -9.43600000
O       -3.79400000     4.75500000    -5.00100000
H       -4.58600000     4.81100000    -4.46700000
H       -3.08000000     4.93800000    -4.39000000
O        4.33600000    -0.29700000    -9.33200000
H        4.48900000     0.54500000    -8.90600000
H        4.13200000    -0.89600000    -8.61300000
O       -7.92100000    13.47700000    -0.70500000
H       -7.33000000    14.21100000    -0.53100000
H       -8.72600000    13.70300000    -0.23900000
O       -4.92000000     7.60500000    11.74200000
H       -5.40700000     7.64300000    10.91800000
H       -4.95700000     8.49800000    12.08400000
O       12.66200000   -14.68600000    -2.10500000
H       12.82000000   -15.32300000    -1.40800000
H       13.24700000   -13.95600000    -1.89900000
O       -2.57700000     3.35400000    -7.20100000
H       -2.94500000     3.58200000    -6.34700000
H       -3.12500000     3.82200000    -7.83100000
O        9.97300000     4.58000000    -2.45300000
H       10.21400000     3.87100000    -1.85800000
H        9.50100000     4.14600000    -3.16400000
O      -13.23600000    14.71600000     0.95500000
H      -13.25800000    15.66600000     1.06600000
H      -12.40500000    14.54400000     0.51200000
O       -7.85700000     5.54700000     2.95200000
H       -7.23900000     4.84900000     2.73300000
H       -8.41500000     5.16800000     3.63200000
O       10.53000000    -0.13000000   -13.58500000
H       10.62800000    -0.91000000   -14.13200000
H        9.74700000     0.30500000   -13.92600000
O        4.17700000    12.61400000   -11.58900000
H        5.03700000    12.33200000   -11.27600000
H        3.56300000    12.28100000   -10.93700000
O       -6.33200000   -10.81700000   -13.07900000
H       -6.24200000   -10.17500000   -12.37500000
H       -7.15300000   -11.27200000   -12.88400000
O       -3.48800000    13.76700000   -11.47000000
H       -3.47800000    14.59800000   -10.99300000
H       -3.08500000    13.97000000   -12.31400000
O       -8.55700000     8.51100000     5.16200000
H       -8.36300000     8.29300000     4.25000000
H       -7.73000000     8.84700000     5.50900000
O       -4.47900000    13.43800000    -2.97600000
H       -3.68200000    13.30000000    -3.48800000
H       -4.16700000    13.60900000    -2.08700000
O        2.69800000     7.36900000    12.48700000
H        2.94900000     7.87700000    13.25900000
H        3.43100000     7.47500000    11.88100000
O      -13.00900000    13.45400000    -7.35600000
H      -12.34000000    12.94600000    -7.81200000
H      -13.79400000    12.90900000    -7.39400000
O       11.23400000     7.76500000    -1.73400000
H       11.03700000     7.74900000    -2.67100000
H       11.39100000     6.85000000    -1.50400000
O        4.61900000    11.68200000    -0.90600000
H        4.92000000    11.88000000    -0.01900000
H        4.67200000    10.72800000    -0.97000000
O      -11.33600000     9.71400000    -5.87200000
H      -10.93400000    10.54900000    -5.63700000
H      -12.17200000     9.95400000    -6.27300000
O      -13.27700000    11.76000000   -14.54200000
H      -12.50100000    12.07300000   -15.00700000
H      -13.45600000    10.90000000   -14.92400000
O       14.91800000    12.87300000     0.38500000
H       15.41500000    12.13900000     0.02100000
H       15.57400000    13.55200000     0.54300000
O        7.67500000    -0.36600000    -6.25000000
H        7.05000000    -0.33000000    -5.52700000
H        8.44800000     0.09600000    -5.92200000
O      -13.17800000     4.06400000    -1.33200000
H      -13.86800000     4.44900000    -1.87200000
H      -12.68500000     3.50800000    -1.93500000
O      -10.74500000    11.87100000     3.20800000
H      -10.92700000    11.82500000     2.26900000
H      -10.23700000    12.67600000     3.31300000
O       -1.41000000     7.05600000     0.67400000
H       -2.36200000     6.96400000     0.69900000
H       -1.17000000     6.83000000    -0.22400000
O       -1.73400000     6.37000000    -8.57400000
H       -1.20400000     6.81000000    -9.23900000
H       -2.28700000     5.76600000    -9.06900000
O      -11.24900000    -8.81500000   -13.03400000
H      -10.68700000    -8.14800000   -13.42800000
H      -10.71500000    -9.19700000   -12.33800000
O        2.32200000     8.60300000   -14.83900000
H        2.77700000     9.37300000   -14.49800000
H        1.45100000     8.92300000   -15.07500000
O       -7.49500000     7.47900000    13.17500000
H       -8.08200000     7.36900000    12.42700000
H       -6.61600000     7.40500000    12.80100000
O        3.56900000    -2.39700000    -7.50200000
H        3.01600000    -3.02600000    -7.96800000
H        2.96900000    -1.94600000    -6.90900000
O      -14.55300000   -11.43700000    -9.10100000
H      -14.69800000   -12.35100000    -9.34300000
H      -14.61700000   -11.42900000    -8.14600000
O        0.65000000     5.85700000    13.19500000
H        0.01800000     6.53400000    12.95400000
H        1.49000000     6.18800000    12.87500000
O        5.21300000   -14.70400000    11.37700000
H        4.61700000   -14.94300000    12.08600000
H        5.60600000   -13.87900000    11.66000000
O       11.68500000     8.15300000     7.20800000
H       11.21700000     8.84500000     6.74400000
H       12.55200000     8.13400000     6.80100000
O       -5.99400000   -10.06000000    11.28000000
H       -6.12400000   -10.16100000    12.22400000
H       -6.72300000    -9.50900000    10.99500000
O       -9.63500000   -13.99500000    12.67900000
H       -9.45300000   -13.18700000    12.20200000
H       -9.76600000   -14.65300000    11.99500000
O       -2.07400000     7.05400000     9.58800000
H       -1.97700000     6.77400000    10.49900000
H       -1.55000000     6.42700000     9.08900000
O       -9.94200000    11.43400000   -12.85700000
H       -9.85900000    10.71400000   -12.23300000
H      -10.76200000    11.86600000   -12.61900000
O       -5.41500000    11.46700000    -0.23500000
H       -4.95900000    11.26100000     0.58100000
H       -5.58100000    12.40900000    -0.18600000
O        8.68100000    14.35900000     2.03300000
H        8.61800000    13.40300000     2.04800000
H        8.30400000    14.61100000     1.19100000
O        1.56600000     8.45300000     7.51900000
H        1.21500000     8.55800000     6.63600000
H        0.80600000     8.56000000     8.09400000
O       -7.69500000     0.99900000     5.79600000
H       -8.26900000     0.74100000     6.51700000
H       -7.69600000     1.95600000     5.81900000
O        1.72100000    12.93500000     1.10200000
H        2.10300000    13.45800000     1.80600000
H        2.29200000    13.09300000     0.34900000
O       -0.54800000     9.16300000     9.14600000
H       -1.05900000     8.38300000     9.35600000
H       -1.10800000     9.66500000     8.55200000
O       -1.15200000     2.00200000     7.40700000
H       -0.58900000     1.39100000     7.88500000
H       -1.26100000     1.60300000     6.54500000
O       -1.20700000     4.48500000     8.58600000
H       -1.08800000     3.67600000     8.08700000
H       -0.49400000     4.48200000     9.22300000
O       -9.17200000     5.86800000   -14.30500000
H      -10.07700000     5.90700000   -14.61400000
H       -8.82100000     6.74200000   -14.47800000
O      -10.77000000     8.73700000    12.96500000
H      -10.91500000     7.80100000    12.82600000
H      -10.08300000     8.77800000    13.63100000
O        8.65000000    10.37300000    11.33000000
H        9.18300000    10.79000000    10.65300000
H        7.95400000    11.00400000    11.50900000
O        6.40900000    12.20200000    11.34000000
H        6.06100000    12.34400000    10.45900000
H        6.66000000    13.07500000    11.64300000
O        0.00800000    10.78900000     4.70500000
H        0.13800000    10.79900000     3.75600000
H       -0.05300000     9.86100000     4.92900000
O       -3.03200000    14.49300000    10.18400000
H       -3.17100000    15.28100000    10.71000000
H       -2.09600000    14.31000000    10.26800000
O       -9.06300000    10.53700000     7.12800000
H       -8.55500000    10.93100000     6.42000000
H       -9.42300000     9.73500000     6.74900000
O       -6.23000000   -12.44200000     9.99100000
H       -6.59800000   -13.18400000    10.47000000
H       -6.22100000   -11.72600000    10.62700000
O      -11.12000000     5.97800000    12.99300000
H      -11.99400000     5.86500000    12.62000000
H      -10.52600000     5.66500000    12.31100000
O        9.83100000     2.00500000     7.45000000
H       10.43100000     1.31100000     7.72400000
H        9.00300000     1.79100000     7.88000000
O       -2.99200000     5.08300000    14.83400000
H       -3.88000000     4.90300000    14.52600000
H       -2.68100000     4.24500000    15.17500000
O       -4.05300000     6.08000000     0.81000000
H       -3.63900000     5.33000000     1.23800000
H       -3.80100000     6.00000000    -0.11000000
O       -6.88900000     2.61100000    12.02700000
H       -6.73900000     3.09700000    12.83900000
H       -6.01900000     2.31700000    11.75900000
O        0.00400000    12.60600000    14.51600000
H       -0.89400000    12.36500000    14.74300000
H       -0.08700000    13.19700000    13.76900000
O       -0.08800000    13.80900000     8.57200000
H        0.45900000    13.36800000     9.22300000
H       -0.04100000    14.73500000     8.80700000
O       -6.67800000    10.61700000    14.17100000
H       -7.34300000    11.00200000    14.74200000
H       -7.12100000    10.50100000    13.33100000
O        2.54600000    10.84500000     9.29100000
H        3.30100000    10.76200000     8.71100000
H        1.95400000    10.14500000     9.01700000
O        1.69300000    10.03200000     1.58500000
H        1.29100000     9.98400000     0.71800000
H        2.00400000    10.93500000     1.65500000
O      -14.79300000    10.69700000     8.01700000
H      -14.90500000     9.90100000     8.53500000
H      -13.85200000    10.73700000     7.84000000
O       -5.95700000    10.29000000   -12.15400000
H       -5.23700000    10.36000000   -12.78000000
H       -6.39700000    11.13900000   -12.19900000
O       12.08100000   -11.33100000     7.78800000
H       12.08300000   -12.15900000     8.26800000
H       12.66500000   -10.76200000     8.28900000
O       -9.20400000     2.03200000    10.52000000
H       -9.31300000     1.12500000    10.80900000
H       -8.34600000     2.29000000    10.85900000
O       -4.77100000   -11.44200000     6.88600000
H       -5.57500000   -11.53500000     7.39700000
H       -4.18100000   -12.10500000     7.24100000
O       -3.35200000    13.95600000    12.95900000
H       -4.30300000    13.95000000    12.84200000
H       -2.99900000    13.80200000    12.08300000
O       -6.20600000    -2.33900000    -2.16300000
H       -5.93200000    -1.78400000    -2.89300000
H       -5.44100000    -2.88200000    -1.97400000
O       -9.82100000     7.01000000   -10.44500000
H       -9.20600000     7.34200000   -11.10000000
H       -9.30200000     6.94000000    -9.64300000
O      -13.50600000     8.87200000   -12.65600000
H      -12.98600000     8.37700000   -13.28800000
H      -13.06800000     8.72600000   -11.81800000
O      -13.41500000     5.92600000     7.38800000
H      -13.16500000     5.25700000     6.75000000
H      -12.72900000     6.58900000     7.32200000
O       -7.27700000    11.20600000     5.11800000
H       -7.26500000    11.65400000     4.27200000
H       -6.44800000    11.45200000     5.53100000
O       -3.84500000   -12.80500000    13.19100000
H       -4.72500000   -13.00400000    12.87100000
H       -3.96900000   -12.58500000    14.11400000
O       -2.53000000     6.09800000    12.23300000
H       -3.33600000     6.59300000    12.08900000
H       -2.25100000     6.34500000    13.11600000
O        6.95500000    10.86200000     4.31000000
H        7.19400000    10.49400000     3.46000000
H        6.44800000    10.17100000     4.73700000
O      -12.78000000    11.04800000    11.50000000
H      -13.66000000    11.38600000    11.33800000
H      -12.88000000    10.47200000    12.25800000
O       11.81000000     8.41500000   -11.04800000
H       12.57700000     8.30000000   -11.60900000
H       11.46300000     9.27200000   -11.28900000
O       -2.58300000    13.34200000     7.21400000
H       -1.82700000    13.35300000     7.80100000
H       -2.77600000    14.26500000     7.05400000
O       -7.78500000    14.66400000     9.46400000
H       -7.28500000    14.13000000    10.08100000
H       -7.15300000    14.90500000     8.78700000
O        1.18900000   -12.89200000     6.76100000
H        0.82500000   -13.04000000     7.63300000
H        2.09300000   -13.20000000     6.82200000
O       -5.79600000     6.67500000     4.91800000
H       -6.45900000     6.59500000     4.23400000
H       -5.70400000     5.79000000     5.26900000
O        4.65000000     4.40300000     5.39800000
H        4.33900000     4.11600000     4.54100000
H        3.85300000     4.59200000     5.89400000
O       -0.15500000   -11.63900000    13.79800000
H       -0.51800000   -12.50800000    13.62200000
H        0.36400000   -11.43400000    13.02000000
O        2.41200000     0.72900000    10.96800000
H        3.08500000     1.40900000    10.92600000
H        1.60300000     1.20300000    11.16400000
O       -1.62500000   -13.44200000     5.06100000
H       -0.72500000   -13.39200000     5.38500000
H       -1.75000000   -14.36400000     4.84200000
O       -6.43700000   -13.72900000    13.20500000
H       -7.09400000   -13.58800000    13.88700000
H       -6.50100000   -14.66300000    13.00100000
O       -4.55400000     7.01800000     8.22800000
H       -4.39400000     7.50400000     7.41800000
H       -3.69400000     6.95300000     8.64300000
O        3.79600000    -6.96800000   -13.33100000
H        4.51000000    -6.61400000   -12.80000000
H        3.36100000    -6.19600000   -13.69300000
O        0.44200000     2.26600000    11.45700000
H        0.55100000     2.69700000    12.30600000
H       -0.14500000     1.53100000    11.63600000
O       -7.41100000    11.41600000    11.35700000
H       -8.33600000    11.29000000    11.14300000
H       -6.97000000    11.43100000    10.50800000
O       -0.23700000     5.91500000   -11.16000000
H       -0.32200000     5.77200000   -12.10400000
H        0.33300000     5.20600000   -10.86100000
O       -7.55000000    12.55200000     2.74600000
H       -7.86100000    12.28000000     1.88200000
H       -8.14900000    13.25000000     3.00800000
O       10.40400000   -11.98200000    10.46500000
H       10.06900000   -12.30200000     9.62700000
H       10.94600000   -12.69900000    10.79600000
O        1.10800000    13.72700000   -11.68500000
H        0.97200000    12.80100000   -11.88500000
H        0.44000000    14.18400000   -12.19600000
O       -5.60400000   -13.82000000   -13.76400000
H       -6.28800000   -14.49000000   -13.78700000
H       -6.01700000   -13.04200000   -14.13600000
O       -6.65700000    14.17300000    -4.40100000
H       -6.07800000    13.85100000    -3.71100000
H       -7.17900000    14.85400000    -3.97700000
O       -6.26700000    13.59100000    12.85800000
H       -6.59300000    13.00800000    12.17300000
H       -6.66900000    13.26400000    13.66400000
O       -1.56800000     0.24000000    11.42100000
H       -1.69000000    -0.71000000    11.39800000
H       -1.48700000     0.49300000    10.50100000
O       -9.18800000   -14.82000000     5.95800000
H       -9.53800000   -14.19300000     6.59100000
H       -9.32600000   -15.67500000     6.36800000
O       -0.01900000    -7.20000000    -9.58300000
H        0.67300000    -7.32100000   -10.23300000
H       -0.29000000    -8.08800000    -9.35400000
O       -2.44700000    -8.65000000    -7.06100000
H       -1.62600000    -9.07700000    -7.30400000
H       -3.11400000    -9.09400000    -7.58600000
O       -3.91600000    -8.78500000    15.02800000
H       -3.56900000    -8.10700000    15.60700000
H       -4.53600000    -8.32400000    14.46100000
O       10.27100000     0.12200000    -8.52300000
H        9.38200000     0.34900000    -8.79700000
H       10.80100000     0.87500000    -8.78100000
O        4.68700000    -7.45000000    -2.14600000
H        4.87400000    -7.01700000    -2.97900000
H        4.29000000    -6.76800000    -1.60400000
O       15.24900000    -2.06300000     5.21900000
H       14.55100000    -1.44600000     4.99400000
H       14.85900000    -2.92600000     5.08000000
O        8.74600000    -6.89600000    -0.33800000
H        8.37300000    -6.52800000    -1.13900000
H        8.38000000    -7.77900000    -0.28600000
O       12.78900000   -11.00200000    -4.28500000
H       12.64700000   -10.70200000    -5.18200000
H       13.02400000   -11.92600000    -4.37400000
O        9.15200000    -7.08500000    -3.80500000
H        8.57400000    -6.51100000    -4.30800000
H        9.81300000    -7.37200000    -4.43500000
O        9.45000000   -13.64600000    -3.99600000
H        8.53400000   -13.52700000    -3.74600000
H        9.42000000   -14.25400000    -4.73400000
O        8.13400000     6.85000000    14.96300000
H        8.42000000     6.16500000    15.57000000
H        8.70800000     6.75100000    14.20400000
O      -14.63000000    -8.26800000     2.64500000
H      -13.91100000    -7.66400000     2.83300000
H      -14.97300000    -7.97400000     1.80100000
O        4.69700000    -2.97200000   -13.23000000
H        3.75500000    -2.87700000   -13.36500000
H        4.87100000    -3.89900000   -13.39700000
O        3.93300000   -10.10600000    -2.43000000
H        4.50200000   -10.51200000    -3.08300000
H        4.30700000    -9.23500000    -2.29400000
O       13.53000000     8.32800000    -0.07000000
H       12.87400000     8.45800000    -0.75300000
H       14.34600000     8.16900000    -0.54800000
O       13.07100000   -12.21000000   -10.98900000
H       13.52500000   -12.97800000   -11.33700000
H       12.35100000   -12.06000000   -11.60100000
O        1.18000000    -7.97900000   -14.27800000
H        0.51300000    -8.14400000   -13.61100000
H        1.76600000    -7.33900000   -13.87700000
O        4.84400000     2.24500000    11.70700000
H        5.60200000     1.87700000    11.25300000
H        4.84800000     1.81600000    12.56400000
O       11.25000000    -9.55900000    -0.17000000
H       11.46900000    -9.15700000    -1.01000000
H       11.07300000   -10.47600000    -0.38200000
O       10.76100000    -8.02600000    -9.43900000
H       10.19600000    -8.78900000    -9.56000000
H       11.07400000    -7.81700000   -10.32000000
O      -14.22700000     7.89500000    -1.68000000
H      -14.47700000     6.98700000    -1.85000000
H      -13.33000000     7.84100000    -1.35100000
O        0.10800000    -3.73700000     5.55600000
H       -0.56900000    -3.26300000     5.07200000
H        0.68800000    -3.05100000     5.89000000
O        3.77500000     8.80900000    -5.75000000
H        4.14800000     9.62000000    -6.09200000
H        4.22400000     8.11600000    -6.23400000
O        2.01800000    -7.99000000   -11.05200000
H        2.50700000    -7.48100000   -11.69900000
H        2.09500000    -8.89600000   -11.35200000
O       -9.07400000   -11.08000000     3.02400000
H       -8.56000000   -11.58100000     3.65600000
H       -9.58000000   -11.73900000     2.54900000
O       10.60600000    -9.37900000     4.80100000
H       11.48200000    -9.71400000     4.60400000
H       10.23200000    -9.17100000     3.94500000
O       -4.18200000    -7.86100000     5.97600000
H       -3.34200000    -8.20300000     5.66800000
H       -4.06200000    -7.74000000     6.91800000
O       -9.25900000    -6.07100000    -1.59200000
H      -10.14500000    -6.15100000    -1.24000000
H       -9.28300000    -5.27200000    -2.12100000
O       14.84200000   -14.29600000   -11.56200000
H       15.50500000   -14.23300000   -12.24900000
H       14.45300000   -15.16200000   -11.68400000
O        4.43000000    -3.67500000    -1.10200000
H        4.04100000    -3.59700000    -1.97300000
H        4.07200000    -2.93500000    -0.61100000
O        8.76000000     1.61800000     2.98200000
H        8.32000000     2.25000000     2.41400000
H        8.15300000     1.48500000     3.70900000
O      -13.44700000    10.38700000    -3.84900000
H      -12.80600000     9.80300000    -4.25600000
H      -14.24900000     9.86700000    -3.80100000
O      -14.13100000   -11.55900000   -12.83200000
H      -13.78700000   -11.05300000   -13.56800000
H      -15.07000000   -11.62500000   -13.00600000
O       10.76200000     8.00500000    -8.59100000
H       11.47400000     7.59700000    -8.09700000
H       11.13600000     8.16900000    -9.45700000
O        5.13800000    -2.83300000   -10.09800000
H        5.59800000    -2.67300000    -9.27400000
H        4.86500000    -1.96600000   -10.39300000
O        3.32700000    -7.98900000    12.28000000
H        2.63500000    -8.43400000    12.76900000
H        3.41000000    -8.49100000    11.47000000
O       10.87000000    -3.86400000     0.53700000
H       10.42800000    -4.39900000     1.19600000
H       10.16900000    -3.35400000     0.13200000
O      -12.99500000    -0.43300000    -9.28400000
H      -13.61700000    -0.48300000   -10.01100000
H      -12.92800000    -1.33200000    -8.96300000
O       12.05200000   -11.38100000     2.92300000
H       11.77600000   -10.91300000     2.13700000
H       11.35700000   -12.01800000     3.08200000
O        6.93500000     4.49100000   -13.73500000
H        7.71400000     4.08700000   -13.35200000
H        6.69600000     5.18300000   -13.11900000
O        5.20600000    -7.21300000    14.29600000
H        4.76600000    -7.47800000    13.48800000
H        4.58400000    -7.42700000    14.99000000
O       14.52700000     8.77100000    -9.10000000
H       14.67600000     9.32300000    -9.86700000
H       14.74100000     7.88600000    -9.39700000
O        6.57600000   -14.23900000    -6.35500000
H        6.70900000   -13.89600000    -5.47200000
H        5.90100000   -14.91100000    -6.25100000
O        9.49300000   -10.56600000    14.33700000
H        9.23000000    -9.97400000    13.63300000
H        8.74500000   -10.57800000    14.93400000
O       12.33100000   -14.38100000     8.41800000
H       11.42200000   -14.62300000     8.23900000
H       12.76800000   -15.21200000     8.60100000
O       12.36400000     5.35600000    -1.40500000
H       11.51600000     5.07100000    -1.74200000
H       12.74300000     4.56900000    -1.01100000
O        8.67200000    -9.95100000    -3.12300000
H        9.07500000    -9.11500000    -3.36100000
H        9.41400000   -10.53000000    -2.94500000
O       10.28600000   -13.96700000     5.17400000
H        9.98300000   -13.59900000     4.34500000
H        9.78600000   -13.49800000     5.84300000
O        7.84100000     8.91800000     1.33100000
H        8.63000000     8.83000000     1.86700000
H        8.16900000     9.07200000     0.44500000
O       11.63100000    -7.50300000     9.00300000
H       11.61200000    -8.24300000     9.61000000
H       12.41500000    -7.01100000     9.25200000
O      -14.51600000    -3.16300000    -3.33200000
H      -14.24900000    -3.39100000    -2.44200000
H      -13.79000000    -2.64300000    -3.67500000
O       11.04600000     4.15000000    -6.75800000
H       10.16000000     4.13300000    -6.39900000
H       11.49600000     3.42900000    -6.32100000
O        1.96400000    -5.42700000    -7.83800000
H        1.59600000    -5.89400000    -8.58900000
H        2.86800000    -5.73500000    -7.78300000
O        3.65300000    10.75200000    -8.89500000
H        4.17600000    10.00500000    -9.18700000
H        2.90600000    10.77000000    -9.49400000
O       -9.89700000    10.81700000    -9.69000000
H      -10.33700000    11.64100000    -9.47800000
H      -10.61000000    10.20000000    -9.85000000
O        8.55100000     8.17100000    -4.44600000
H        8.28100000     8.72900000    -5.17500000
H        7.86000000     7.51100000    -4.38100000
O       11.04800000    11.51800000     1.06200000
H       10.85000000    10.62400000     0.78800000
H       10.19600000    11.89800000     1.27800000
O      -14.65900000    -8.66000000    -7.64900000
H      -15.23700000    -9.10200000    -8.27300000
H      -13.98200000    -8.25900000    -8.19300000
O       -9.27900000   -13.35700000    -0.83700000
H       -8.33700000   -13.45000000    -0.98400000
H       -9.57000000   -12.75100000    -1.51800000
O        6.28800000    -3.64400000    13.16500000
H        6.79500000    -4.25700000    13.70000000
H        6.78200000    -3.57600000    12.34800000
O       -2.64900000   -11.20700000   -14.63000000
H       -3.24100000   -10.48400000   -14.83600000
H       -1.97400000   -11.16600000   -15.30700000
O        9.77000000   -12.90900000     2.62800000
H       10.00800000   -12.81200000     1.70500000
H        9.22900000   -13.69900000     2.65500000
O       -6.14000000   -10.59700000     4.48900000
H       -5.53300000   -10.90000000     5.16600000
H       -6.87500000   -11.20900000     4.53700000
O       12.98400000    -7.76600000    13.55400000
H       13.50200000    -6.99200000    13.33500000
H       12.82400000    -8.19500000    12.71500000
O        6.54300000   -13.26600000    -3.88800000
H        6.36700000   -13.24800000    -2.94800000
H        6.40800000   -12.36300000    -4.17500000
O        7.42600000    -8.77200000     1.52200000
H        6.88500000    -8.17800000     2.04300000
H        6.99100000    -8.81200000     0.67200000
O       13.30400000   -13.45200000    -5.64200000
H       12.97900000   -14.22200000    -5.17700000
H       12.89600000   -13.50200000    -6.50600000
O      -10.50500000     4.26500000     0.62400000
H      -11.41500000     4.46300000     0.40300000
H      -10.45400000     4.39700000     1.57000000
O        6.88100000     1.09200000     4.52200000
H        6.56800000     1.56000000     5.29600000
H        7.33800000     0.32700000     4.87200000
O        9.89900000    -2.19100000     3.12100000
H       10.64100000    -2.70400000     2.79700000
H       10.29900000    -1.47700000     3.61700000
O      -11.99400000   -10.90600000     6.93200000
H      -12.38400000   -11.40900000     6.21800000
H      -11.69100000   -10.09800000     6.51700000
O       15.17600000     7.49000000     8.78000000
H       15.83000000     7.01600000     8.26600000
H       14.43200000     7.59300000     8.18600000
O        8.28100000    14.77500000    -8.25800000
H        7.62800000    15.11200000    -7.64600000
H        8.95400000    14.38300000    -7.69900000
O       -2.55000000    -7.54000000    -2.71600000
H       -1.61000000    -7.56500000    -2.89500000
H       -2.72300000    -8.34600000    -2.23000000
O        7.56700000    -2.63300000    -3.45500000
H        7.06200000    -1.84200000    -3.63900000
H        7.51700000    -3.14300000    -4.26400000
O       13.30400000    -6.06100000     3.77500000
H       14.19500000    -6.20800000     4.09400000
H       12.75200000    -6.58700000     4.35300000
O       11.24400000     6.10300000    13.99800000
H       10.74000000     6.02200000    13.19000000
H       11.74700000     6.91100000    13.88700000
O      -12.05300000    -6.06900000    -6.30400000
H      -11.63000000    -5.86700000    -5.46900000
H      -12.91900000    -5.66700000    -6.23700000
O      -12.72300000    -6.74400000     3.48900000
H      -11.87200000    -6.34000000     3.65700000
H      -13.28100000    -6.43300000     4.20200000
O       12.81300000    -9.03800000    -2.26200000
H       12.94500000    -9.86300000    -2.73000000
H       12.74300000    -8.37800000    -2.95400000
O       -8.62400000   -11.49100000   -11.60300000
H       -8.97700000   -10.62700000   -11.38900000
H       -9.31400000   -11.91000000   -12.11800000
O        5.47300000   -11.74700000    -7.76400000
H        6.09800000   -12.31300000    -7.31100000
H        4.73900000   -11.66600000    -7.15600000
O        2.15800000    14.66600000    -4.31800000
H        1.63100000    14.08000000    -3.77500000
H        1.58900000    14.89000000    -5.05400000
O       -8.80300000    -4.71500000    -9.57400000
H       -9.05400000    -4.15900000    -8.83600000
H       -8.81700000    -4.13000000   -10.33100000
O        7.36100000    12.85200000     6.43900000
H        7.60100000    12.31700000     5.68400000
H        7.71800000    13.71900000     6.24400000
O       11.31500000    13.45500000     5.63800000
H       10.69700000    12.87300000     5.19400000
H       10.98900000    14.33600000     5.45400000
O        1.26200000     0.94900000   -14.26300000
H        0.38000000     0.61200000   -14.11000000
H        1.70100000     0.25700000   -14.75800000
O        7.47500000    -7.22800000    -6.30300000
H        8.38900000    -7.51100000    -6.33500000
H        7.43700000    -6.47100000    -6.88900000
O        9.69600000    -4.09800000    -7.70000000
H       10.00500000    -3.65100000    -6.91200000
H       10.40900000    -3.99000000    -8.33100000
O        5.77600000    12.60300000     1.56300000
H        5.32500000    13.41200000     1.80200000
H        5.22300000    11.90500000     1.91400000
O        2.49000000     9.49000000    -3.34400000
H        2.44400000     9.09700000    -4.21500000
H        3.18700000    10.14400000    -3.41200000
O       12.42000000    -7.07300000    -4.17900000
H       11.98000000    -6.33600000    -3.75600000
H       12.59500000    -6.76800000    -5.07000000
O        9.74100000    -6.76300000   -14.77200000
H       10.31000000    -6.16300000   -15.25500000
H       10.25900000    -7.02700000   -14.01200000
O       12.97400000     2.83900000     5.49500000
H       12.31900000     2.92600000     6.18900000
H       13.10300000     3.73100000     5.17300000
O        5.75500000    -9.27100000    -8.98700000
H        5.99900000   -10.05700000    -8.49900000
H        6.59100000    -8.89600000    -9.27000000
O      -10.59100000     2.23800000     5.96600000
H      -11.13200000     2.63400000     5.28300000
H       -9.90500000     2.88600000     6.13400000
O        8.35100000    10.70300000    -7.19000000
H        7.52700000    11.12000000    -7.44300000
H        8.36800000     9.88500000    -7.68500000
O        0.38100000   -11.88600000    -2.96500000
H        1.24100000   -12.29400000    -3.06800000
H       -0.11300000   -12.50000000    -2.42100000
O      -13.43600000    -8.18400000    -0.77500000
H      -14.32300000    -8.25800000    -0.42800000
H      -13.14200000    -7.31500000    -0.50500000
O      -13.48600000     3.33600000    -6.77900000
H      -12.90300000     3.46400000    -6.03000000
H      -14.27600000     2.94700000    -6.40500000
O       -3.83900000     3.04800000     5.62500000
H       -3.17300000     2.88200000     4.95800000
H       -3.99800000     2.19200000     6.02500000
O       10.63900000    -1.49300000    -3.35700000
H       10.34300000    -0.76500000    -2.81100000
H       11.42900000    -1.81300000    -2.92100000
O       12.42200000    12.86000000    -0.63800000
H       11.94000000    12.35400000     0.01500000
H       13.32000000    12.88600000    -0.30800000
O       10.09800000   -12.88100000    -9.03900000
H        9.49300000   -13.62400000    -9.02600000
H       10.96800000   -13.28000000    -9.03400000
O        4.72800000     0.17200000     1.15500000
H        5.54300000    -0.32300000     1.06800000
H        5.01000000     1.05800000     1.38300000
O       13.07500000    -1.39700000   -11.09100000
H       13.04900000    -1.15400000   -10.16600000
H       13.21100000    -0.56900000   -11.55300000
O       -9.52100000    -0.47600000     1.44000000
H       -8.84900000    -0.55800000     2.11600000
H      -10.27100000    -0.08800000     1.89100000
O        8.15600000    -0.61200000    14.34800000
H        8.38300000     0.29800000    14.54300000
H        7.65000000    -0.56400000    13.53700000
O        9.81500000   -11.21000000    -6.60100000
H        9.97600000   -11.87000000    -7.27500000
H       10.67900000   -11.03300000    -6.22700000
O       13.20100000     0.96400000   -13.12400000
H       12.37300000     0.49900000   -13.24300000
H       13.58000000     1.00800000   -14.00200000
O        6.73000000    -9.03700000    -1.21200000
H        6.05500000    -8.54200000    -1.67500000
H        7.34800000    -9.29600000    -1.89600000
O      -10.28400000    -4.12500000   -13.89000000
H      -10.99000000    -3.55300000   -13.59100000
H       -9.56600000    -3.96200000   -13.27800000
O        3.25800000     2.17900000    -3.64200000
H        3.21600000     1.24300000    -3.83900000
H        4.12700000     2.30200000    -3.25800000
O       10.79100000    -3.03200000    -5.53200000
H       10.42900000    -2.48400000    -4.83500000
H       11.59000000    -3.40100000    -5.15700000
O       12.54700000   -10.02600000    -6.87700000
H       12.70000000    -9.10500000    -6.66500000
H       12.87100000   -10.12100000    -7.77300000
O        9.44900000    -6.02500000     9.43800000
H        8.77200000    -6.56600000     9.03000000
H       10.23000000    -6.57700000     9.43800000
O        2.09600000     3.42600000   -13.25700000
H        2.03200000     2.53400000   -13.60100000
H        2.72300000     3.86100000   -13.83400000
O        8.15900000    -1.42300000     5.02200000
H        8.87100000    -1.72400000     4.45600000
H        7.41600000    -1.98300000     4.79100000
O        8.56900000   -14.52700000    -0.71300000
H        9.01400000   -15.23400000    -1.18000000
H        9.25900000   -13.89100000    -0.52600000
O       -6.17600000     3.92900000   -10.24400000
H       -6.24500000     2.99900000   -10.02800000
H       -6.81600000     4.06200000   -10.94400000
O      -13.77500000    -2.79700000   -11.42500000
H      -13.92400000    -2.13500000   -12.10000000
H      -14.44500000    -3.46100000   -11.58900000
O        1.57100000    -9.33300000    -3.13300000
H        2.46600000    -9.64300000    -2.99300000
H        1.03700000   -10.12600000    -3.11200000
O       10.57100000   -12.47400000     0.21200000
H       11.47000000   -12.79800000     0.27600000
H       10.42300000   -12.36100000    -0.72700000
O       11.34700000    -5.22600000    -2.51700000
H       11.66300000    -5.89400000    -1.90800000
H       10.41000000    -5.15800000    -2.33300000
O        8.33000000    -6.56200000   -11.43300000
H        8.52500000    -5.62500000   -11.48800000
H        8.74800000    -6.84600000   -10.61900000
O        3.70600000   -13.22900000   -10.43100000
H        3.48100000   -13.96400000    -9.86100000
H        4.66300000   -13.18900000   -10.40400000
O       13.29900000    -5.78300000    10.48000000
H       13.88900000    -5.73200000    11.23200000
H       12.78600000    -4.97600000    10.52400000
O       14.71800000     5.47000000    -2.45500000
H       13.82600000     5.47800000    -2.10800000
H       14.60600000     5.45500000    -3.40500000
O        5.22000000    -6.62900000    -4.87200000
H        5.22000000    -5.74500000    -5.23900000
H        5.92300000    -7.08100000    -5.33500000
O        8.00200000    -3.62500000    11.21300000
H        8.07300000    -4.44000000    10.71500000
H        8.89300000    -3.44800000    11.51300000
O        7.65200000     2.82800000    -1.21000000
H        7.78900000     3.56100000    -0.61200000
H        6.80600000     3.00500000    -1.62000000
O        3.86400000     3.93000000     9.74300000
H        4.10400000     3.30400000    10.42800000
H        4.66200000     4.43200000     9.58700000
O      -13.71100000    -3.21200000    -8.47200000
H      -13.88400000    -3.42700000    -9.38900000
H      -13.85200000    -4.03400000    -8.00200000
O        3.85500000    -8.76100000    -5.99200000
H        3.99700000    -8.69100000    -6.93600000
H        4.16800000    -7.92900000    -5.63900000
O        2.89300000   -12.87900000    -3.23900000
H        2.84600000   -13.07100000    -2.30200000
H        2.75200000   -13.72400000    -3.66400000
O        8.39800000    -8.95000000   -12.65200000
H        8.42800000    -8.03300000   -12.38400000
H        7.88700000    -8.94800000   -13.46200000
O        4.74000000    14.02300000   -14.06900000
H        5.69700000    14.01500000   -14.07500000
H        4.50000000    13.50200000   -13.30200000
O        8.40300000   -10.41500000    11.67800000
H        9.10300000   -10.84300000    11.18700000
H        7.76600000   -10.15500000    11.01400000
O       14.71200000     6.30700000     1.86500000
H       14.42900000     7.11900000     1.44500000
H       15.60200000     6.49200000     2.16700000
O       -6.76800000   -14.06700000    -7.87700000
H       -6.30400000   -13.59100000    -7.18700000
H       -7.07800000   -13.38400000    -8.47100000
O       11.37200000    -8.79400000   -12.06500000
H       12.08600000    -8.52000000   -12.64200000
H       10.78500000    -9.29500000   -12.63100000
O       10.72200000     5.81900000   -13.40600000
H       10.80900000     6.00400000   -14.34100000
H       11.53400000     5.37000000   -13.17300000
O       13.67500000    -9.52900000     4.36200000
H       14.11400000    -9.00300000     3.69400000
H       13.37000000   -10.30600000     3.89500000
O       -0.98400000   -14.18800000    13.85600000
H       -1.88100000   -14.32100000    14.16100000
H       -0.44500000   -14.30400000    14.63900000
O        6.25200000   -10.61100000     2.81600000
H        5.89100000   -11.09000000     2.07000000
H        6.83400000    -9.96000000     2.42600000
O        4.86200000    -1.54100000    14.38200000
H        4.93100000    -2.06300000    15.18200000
H        5.24800000    -2.09200000    13.70200000
O       14.71400000    -5.21900000   -13.72300000
H       15.09200000    -5.37900000   -14.58700000
H       14.19800000    -6.00400000   -13.53700000
O        9.12300000     1.79300000    14.77500000
H        9.08600000     2.38600000    15.52600000
H        9.96500000     1.98400000    14.36000000
O      -12.08700000     1.38900000    12.66700000
H      -12.32100000     1.04600000    11.80500000
H      -11.15500000     1.18900000    12.75900000
O        6.72900000    -1.78800000     9.31600000
H        6.93000000    -2.65400000     9.67200000
H        6.58900000    -1.94000000     8.38200000
O        9.69400000     1.45500000    11.58200000
H        9.80900000     2.34200000    11.24000000
H        9.34800000     1.58300000    12.46600000
O       14.48600000    -4.61800000     7.54600000
H       13.59400000    -4.40700000     7.27000000
H       14.40400000    -4.83300000     8.47600000
O       12.82600000    -3.34700000     3.88900000
H       12.89500000    -4.30000000     3.82800000
H       12.91500000    -3.15700000     4.82300000
O       13.42900000    -1.92000000     9.04600000
H       14.07100000    -2.32000000     9.63300000
H       12.76300000    -1.55900000     9.63100000
O      -13.71400000    -1.07300000    11.85800000
H      -13.41200000    -0.98600000    12.76100000
H      -12.94600000    -1.38100000    11.37700000
O        9.42200000   -13.26100000    13.17700000
H       10.09100000   -13.56600000    12.56200000
H        9.71600000   -12.38600000    13.43500000
O        7.07300000    -1.63500000   -12.55400000
H        7.08400000    -1.28800000   -13.44600000
H        6.26500000    -2.14600000   -12.50400000
O      -14.00800000   -10.51400000    11.64100000
H      -13.86800000   -10.66000000    10.70700000
H      -13.81300000    -9.58700000    11.77200000
O       13.34000000    10.77500000   -14.73700000
H       12.96200000    11.38900000   -15.36700000
H       14.10100000    11.23500000   -14.38200000
O      -11.77300000    -4.74000000     7.98200000
H      -12.36400000    -4.17200000     7.48700000
H      -11.19000000    -4.13600000     8.44200000
O        6.50300000    -9.99600000     9.47000000
H        5.66000000    -9.73200000     9.83500000
H        6.56600000   -10.93100000     9.66000000
O       11.85300000    -9.41700000    11.00000000
H       11.13100000   -10.03000000    10.86800000
H       12.63300000    -9.90200000    10.72800000
O       14.07000000    13.18800000   -11.89000000
H       14.18500000    12.29000000   -11.58200000
H       14.78700000    13.32700000   -12.50800000
O      -12.04100000    -7.92400000     8.39100000
H      -11.77400000    -7.11200000     7.95900000
H      -12.58600000    -8.37200000     7.74300000
O        7.74200000     9.47600000   -14.11900000
H        6.96700000     9.40400000   -13.56300000
H        7.81600000     8.61900000   -14.54100000
O       12.31900000    -7.24200000     5.97200000
H       12.47400000    -7.42900000     6.89800000
H       11.48500000    -7.67100000     5.77700000
O      -11.45500000     3.70300000     9.85300000
H      -12.08000000     2.97900000     9.87700000
H      -10.60700000     3.29600000    10.03000000
O       -9.50700000     0.25000000    13.79300000
H       -9.44100000    -0.35000000    13.05000000
H       -8.59900000     0.42100000    14.04400000
O        4.86700000     4.26400000   -10.14600000
H        5.13700000     3.50600000   -10.66300000
H        4.88200000     4.99300000   -10.76500000
O       12.24900000    -4.42500000    -9.39000000
H       12.60700000    -3.56000000    -9.19200000
H       12.85300000    -4.79100000   -10.03800000
O        7.49600000    -7.64700000     8.29600000
H        7.94200000    -7.76600000     7.45800000
H        7.29400000    -8.53600000     8.58900000
O        8.36500000    11.82700000     1.01800000
H        7.42800000    11.82500000     1.21200000
H        8.48700000    11.08600000     0.42300000
O       11.39300000    -0.01900000     7.97300000
H       12.14000000    -0.42700000     7.53400000
H       11.47800000    -0.28700000     8.88900000
O      -12.97600000   -10.24800000   -10.71100000
H      -13.29700000   -10.66500000   -11.51100000
H      -13.60400000   -10.50700000   -10.03700000
O       12.02100000    13.89900000   -13.71400000
H       12.84200000    13.54800000   -13.36700000
H       11.64100000    14.38700000   -12.98400000
O        9.56600000     8.54800000     3.43000000
H        9.58600000     7.76100000     3.97600000
H       10.45800000     8.62800000     3.09400000
O       12.71900000    13.04900000    13.42000000
H       12.17600000    13.58000000    14.00300000
H       13.37800000    13.65800000    13.08800000
O       -8.52800000     6.53600000    10.44100000
H       -8.06700000     7.31300000    10.12800000
H       -7.88900000     5.82800000    10.35400000
O        9.48600000     3.51400000   -13.17200000
H        9.84400000     4.37900000   -13.37300000
H       10.13700000     3.11200000   -12.59800000
O       10.55500000     0.14100000     4.30100000
H        9.99100000     0.34400000     5.04800000
H       10.33700000     0.80500000     3.64800000
O       13.19900000   -12.05700000   -14.14900000
H       12.44800000   -12.63000000   -13.98800000
H       12.88100000   -11.18000000   -13.93800000
O        2.89800000    -9.05100000     6.92600000
H        3.23700000    -9.94500000     6.97600000
H        3.55000000    -8.57500000     6.40900000
O        3.94200000   -11.20300000    12.76100000
H        4.75600000   -11.70000000    12.67600000
H        3.89600000   -10.97600000    13.69000000
O       14.52700000    -3.28600000    11.34200000
H       14.69500000    -3.84200000    12.10400000
H       14.88600000    -2.43100000    11.58500000
O        5.37700000    -8.39300000     5.73800000
H        5.72000000    -9.25600000     5.50400000
H        6.15700000    -7.85900000     5.89000000
O       14.72400000   -11.83000000     1.13400000
H       14.54700000   -12.61100000     1.65900000
H       14.21600000   -11.13600000     1.55800000
O       11.45200000    -2.59800000    12.68900000
H       10.74300000    -2.76300000    13.30900000
H       12.21300000    -2.40800000    13.23700000
O        3.19000000    -7.37100000     9.18400000
H        3.06800000    -8.32000000     9.15400000
H        2.32500000    -7.02500000     9.40900000
O        6.87300000     0.68700000    10.48200000
H        7.55100000     0.50700000    11.13300000
H        6.69700000    -0.16300000    10.07800000
O       15.16000000   -12.40200000    13.76900000
H       14.62200000   -12.07200000    14.48900000
H       15.03000000   -11.77000000    13.06300000
O        9.31000000   -10.28900000    -9.86700000
H        9.19500000   -10.47300000   -10.79900000
H        9.55800000   -11.13100000    -9.48500000
O       14.00800000   -10.01500000     9.03400000
H       14.53900000    -9.33100000     9.44400000
H       14.58100000   -10.78100000     9.01000000
O      -12.17300000   -11.20500000    14.05500000
H      -12.35100000   -10.26600000    14.09900000
H      -12.68500000   -11.51300000    13.30800000
O       -4.80000000    -3.19000000     2.24100000
H       -4.48900000    -3.77200000     2.93400000
H       -4.56700000    -3.64000000     1.42800000
O      -12.43600000     0.96600000     9.77300000
H      -13.19700000     0.47400000     9.46800000
H      -11.68300000     0.45600000     9.47500000
O        5.44600000     1.22400000    14.04000000
H        5.23200000     0.30900000    13.86100000
H        5.88700000     1.20600000    14.88900000
O        5.31200000    -5.79200000     8.47000000
H        6.11100000    -6.32000000     8.51800000
H        4.61400000    -6.39100000     8.73400000
O        8.91600000    -2.27500000    -0.74500000
H        8.61700000    -2.36800000    -1.64900000
H        9.17500000    -1.35700000    -0.67100000
O        7.23700000     3.46400000    12.48500000
H        6.99600000     4.22300000    13.01700000
H        6.51600000     2.84500000    12.60700000
O        5.97000000     5.65900000    13.61400000
H        6.11700000     5.93800000    14.51800000
H        5.87500000     6.47500000    13.12300000
O        8.40600000    -7.90200000     5.79300000
H        8.88100000    -7.20600000     5.33900000
H        8.89300000    -8.70000000     5.58300000
O      -14.56900000    -7.82200000    10.09800000
H      -13.68900000    -7.68800000     9.74400000
H      -15.01200000    -6.98400000     9.96200000
O        6.59200000   -10.78300000    -4.70100000
H        7.48100000   -10.56500000    -4.41800000
H        6.26700000    -9.97900000    -5.10700000
O       -9.41200000    -3.43900000    -7.39000000
H       -9.84500000    -4.07300000    -6.81600000
H       -9.11500000    -2.74700000    -6.80100000
O       -8.63800000    -8.95700000    -1.94800000
H       -7.92800000    -9.07000000    -2.58000000
H       -8.71000000    -8.01000000    -1.83400000
O       11.18800000    -0.77600000    10.44400000
H       11.23000000    -1.39900000    11.17100000
H       10.66300000    -0.05000000    10.78100000
O       12.27900000    11.12800000     7.23700000
H       13.20100000    11.21900000     7.48100000
H       12.11500000    11.85700000     6.63900000
O      -14.18100000    -5.23000000    -1.04000000
H      -14.86300000    -5.21500000    -0.36800000
H      -14.46600000    -5.90700000    -1.65500000
O        7.31600000    -1.04800000     1.17900000
H        7.95800000    -1.61700000     0.75200000
H        7.79900000    -0.64400000     1.90100000
O        6.66000000     8.58800000    12.21700000
H        7.36100000     9.14300000    11.87300000
H        6.13000000     9.17700000    12.75200000
O      -11.55300000     0.91400000     2.50400000
H      -11.40200000     1.74000000     2.96100000
H      -12.36700000     1.05200000     2.01800000
O        9.42300000   -11.28000000     6.18500000
H        9.89800000   -10.51900000     5.84600000
H        9.85200000   -11.47700000     7.01800000
O      -14.81600000    -5.76800000    12.51100000
H      -14.25000000    -5.49900000    11.78700000
H      -14.23700000    -6.24700000    13.10500000
O       -0.94800000    -8.54300000     0.70100000
H       -0.44500000    -8.14800000    -0.01100000
H       -1.26200000    -7.79800000     1.21400000
O       13.49800000    -2.47800000    14.41100000
H       14.34800000    -2.03900000    14.40700000
H       13.51400000    -3.02800000    15.19500000
O      -10.77600000    -0.67900000     5.15800000
H      -11.36600000     0.05000000     5.34200000
H      -10.82000000    -0.78900000     4.20800000
O        4.66300000    -5.90100000     5.02700000
H        4.28000000    -5.09800000     5.38000000
H        4.42100000    -6.58000000     5.65800000
O        2.52600000   -12.75300000    -0.67500000
H        2.76700000   -13.31200000     0.06500000
H        2.30600000   -11.91100000    -0.27800000
O       -9.22900000    -0.67800000    11.19800000
H       -9.83900000    -1.31400000    10.82200000
H       -8.42200000    -1.17400000    11.33500000
O       -8.51400000   -11.35000000     8.92300000
H       -7.65800000   -11.56200000     9.29600000
H       -9.06300000   -11.15100000     9.68100000
O      -14.04000000    -0.87200000     8.58600000
H      -14.97900000    -1.04800000     8.64300000
H      -13.71000000    -1.52400000     7.97000000
O      -12.63600000    -2.49000000     6.73400000
H      -11.91200000    -1.94600000     6.42500000
H      -13.37100000    -2.25600000     6.16800000
O       12.78400000    -6.70000000    -7.56100000
H       12.38800000    -5.93900000    -7.98900000
H       12.76300000    -7.38600000    -8.22700000
O      -10.05200000    -6.78900000   -14.57700000
H      -10.14000000    -5.85400000   -14.39800000
H       -9.11000000    -6.95500000   -14.52200000
O      -11.11100000    -9.70200000    -0.21500000
H      -10.40300000    -9.24800000    -0.67400000
H      -11.84300000    -9.08500000    -0.23400000
O       -0.32200000    -6.40100000     5.55300000
H       -0.26300000    -5.44900000     5.63000000
H       -0.29200000    -6.56800000     4.61100000
O      -12.25600000    14.45300000     6.38300000
H      -12.92300000    13.76700000     6.36500000
H      -12.54600000    15.08800000     5.72900000
O        4.94900000     2.06700000     6.72800000
H        5.58500000     2.26300000     7.41700000
H        4.71700000     2.92300000     6.36600000
O       12.44500000    -2.61400000     6.49300000
H       11.66300000    -3.10100000     6.75700000
H       13.01500000    -2.64000000     7.26200000
O      -12.98000000   -10.43700000     2.42400000
H      -13.42200000   -10.88300000     1.70100000
H      -13.60900000    -9.77900000     2.72000000
O      -10.90400000   -11.85700000    -9.39700000
H       -9.95000000   -11.78000000    -9.36400000
H      -11.18800000   -11.11200000    -9.92700000
O        7.62000000    -4.64000000     6.82500000
H        7.03100000    -3.89000000     6.73600000
H        7.07200000    -5.33000000     7.20300000
O       13.92300000     5.55700000     5.44200000
H       14.51300000     5.86700000     6.12800000
H       13.81700000     6.30900000     4.85900000
O        3.82600000    10.70500000   -14.22100000
H        3.92200000    11.60800000   -13.91500000
H        4.50700000    10.60400000   -14.88700000
O        9.63000000     0.32200000    -1.50500000
H        9.04700000     1.05100000    -1.71800000
H       10.19100000     0.66000000    -0.80700000
O        7.85600000     0.58100000   -10.65000000
H        7.19900000     1.09200000   -11.12200000
H        7.79900000    -0.29400000   -11.03100000
O        4.86300000   -14.93700000     2.29900000
H        5.16200000   -14.64700000     1.43700000
H        3.99000000   -14.55900000     2.39100000
O        9.88700000    11.18900000     4.83000000
H       10.62200000    10.73900000     4.41100000
H        9.11200000    10.84800000     4.38300000
O        7.28100000    14.73500000   -10.64800000
H        6.80100000    15.55700000   -10.55200000
H        7.60300000    14.54100000    -9.76800000
O        5.08800000     9.00200000    -1.37800000
H        5.58700000     9.14600000    -2.18200000
H        5.69000000     8.53100000    -0.80200000
O        1.54700000   -12.40200000    -7.90200000
H        1.80700000   -13.27900000    -8.18500000
H        2.36700000   -11.97600000    -7.65600000
O        3.16500000   -11.34700000    -6.11500000
H        3.33200000   -10.41700000    -5.96000000
H        3.00500000   -11.71200000    -5.24500000
O        5.63800000     9.11200000   -12.11400000
H        4.91500000     9.60200000   -12.50300000
H        5.56000000     9.27500000   -11.17400000
O        7.00800000   -14.98400000     4.46700000
H        7.62100000   -15.19800000     3.76300000
H        6.26500000   -14.57500000     4.02400000
O       12.45800000     6.42000000    -6.81200000
H       12.32700000     7.00300000    -6.06500000
H       11.67600000     5.86900000    -6.82900000
O        6.42300000   -12.88500000   -10.19900000
H        6.42000000   -12.33600000    -9.41400000
H        6.87100000   -12.35600000   -10.86000000
O        7.31700000    -4.85600000     1.28100000
H        7.29300000    -4.67700000     0.34100000
H        8.19700000    -5.20100000     1.43700000
O       13.17300000     2.43600000    -5.57700000
H       13.05700000     2.30200000    -4.63700000
H       13.61800000     3.28200000    -5.64500000
O      -13.65800000    10.60900000    -0.96700000
H      -14.48100000    10.24400000    -0.64500000
H      -13.46000000    10.09700000    -1.75100000
O      -12.75600000    14.69300000     3.70400000
H      -12.44300000    13.78900000     3.71700000
H      -13.17900000    14.78800000     2.85000000
O      -13.53500000     3.46500000     5.10100000
H      -14.41900000     3.78500000     4.92800000
H      -13.65600000     2.55000000     5.35600000
O      -12.61100000    13.33800000   -11.43000000
H      -13.04300000    13.78000000   -12.16100000
H      -12.22400000    14.04800000   -10.91700000
O        2.76900000     4.61900000    -8.00500000
H        1.88100000     4.27500000    -7.91100000
H        3.03100000     4.36800000    -8.89100000
O       10.81200000    10.36000000    13.84800000
H       11.66000000     9.92100000    13.77200000
H       10.35400000    10.13700000    13.03700000
O       11.98400000     2.56900000    -1.37900000
H       11.58900000     2.78900000    -0.53500000
H       12.12100000     1.62100000    -1.33900000
O        5.24200000     8.55100000    -9.48600000
H        4.76900000     7.71900000    -9.46900000
H        6.15600000     8.31000000    -9.33500000
O        8.35300000     6.63000000    -1.44700000
H        7.87900000     6.61400000    -2.27800000
H        9.26200000     6.44400000    -1.68600000
O        6.83500000    12.02800000   -11.00500000
H        7.14300000    11.70700000   -11.85200000
H        7.11000000    12.94600000   -10.98200000
O        7.87500000     8.18800000    -8.68900000
H        7.82400000     7.40300000    -8.14200000
H        8.79400000     8.23500000    -8.95600000
O      -11.95400000     8.24600000     6.76600000
H      -11.80100000     8.61500000     5.89700000
H      -12.14300000     9.00500000     7.31900000
O       10.53900000   -11.74900000    -2.52800000
H       10.16600000   -12.35600000    -3.16700000
H       11.39500000   -11.51700000    -2.88800000
O      -11.63700000    11.77200000     0.63400000
H      -12.27800000    11.29800000     0.10500000
H      -11.57400000    12.63300000     0.22100000
O        9.42100000     6.83000000   -11.20400000
H       10.06700000     7.45300000   -10.86900000
H        9.74700000     6.58900000   -12.07000000
O       10.63300000     1.52400000   -11.20800000
H       10.73900000     0.86900000   -11.89700000
H        9.79800000     1.30200000   -10.79300000
O      -13.48200000     9.38300000    14.03800000
H      -13.93900000     8.59400000    14.32700000
H      -12.57100000     9.11000000    13.93000000
O       10.98300000     5.89400000     8.31200000
H       11.24800000     6.69800000     7.86400000
H       10.33800000     5.49500000     7.72900000
O       13.38200000     0.04800000    -0.81300000
H       13.63700000    -0.84200000    -1.05700000
H       14.01600000     0.61000000    -1.25900000
O        6.80600000     2.68200000    -5.94700000
H        5.99700000     2.97000000    -5.52600000
H        6.51700000     2.17400000    -6.70500000
O        6.61800000     6.30200000    -4.03100000
H        5.68200000     6.38500000    -3.85400000
H        6.66600000     5.92600000    -4.91000000
O        5.25100000    10.96800000    13.44100000
H        4.36400000    11.32400000    13.37900000
H        5.69200000    11.28000000    12.65200000
O        8.07800000     4.31600000     2.44100000
H        7.61100000     5.06700000     2.07300000
H        8.73600000     4.70300000     3.01900000
O        5.02300000     6.54500000    -7.34700000
H        4.42800000     5.87700000    -7.68800000
H        5.82100000     6.06500000    -7.12800000
O        9.01300000     2.75200000    -4.42500000
H        9.46300000     1.93800000    -4.65200000
H        8.26200000     2.78400000    -5.01800000
O       12.78100000    10.84000000    -8.43100000
H       13.06800000     9.93800000    -8.30100000
H       12.70600000    10.93500000    -9.38100000
O       12.46300000    10.22800000     3.92300000
H       12.54000000     9.59600000     3.20800000
H       13.25300000    10.76400000     3.85500000
O       14.30700000     0.25400000     2.44600000
H       13.97800000     0.04900000     3.32000000
H       13.86800000    -0.37100000     1.87000000
O        2.33500000     7.71400000     2.73100000
H        2.19100000     7.01900000     2.08800000
H        2.08600000     8.51900000     2.27600000
O       10.82500000   -12.85400000   -12.66400000
H       10.00700000   -12.36100000   -12.70900000
H       10.58800000   -13.67600000   -12.23500000
O       13.14800000     1.48200000    -9.97700000
H       12.47500000     1.45000000   -10.65700000
H       13.53700000     2.35400000   -10.06600000
O        3.47200000    -3.54800000     3.19300000
H        3.42200000    -3.30700000     4.11800000
H        4.33700000    -3.25100000     2.91400000
O       -2.89500000   -10.81500000     0.52800000
H       -3.63200000   -10.60900000     1.10400000
H       -2.19300000   -10.23400000     0.82000000
O        9.93800000    14.71800000   -11.67300000
H        8.99000000    14.60400000   -11.59700000
H       10.29200000    14.30800000   -10.88300000
O        9.46500000    13.47400000    -6.26700000
H       10.29700000    13.00100000    -6.25200000
H        8.83300000    12.86000000    -5.89000000
O       12.94000000    13.34800000    -7.35200000
H       12.87700000    12.39500000    -7.43300000
H       12.86500000    13.51200000    -6.41200000
O       12.02700000     8.24100000     2.17900000
H       12.35600000     8.53500000     1.32900000
H       11.75100000     7.33800000     2.03100000
O       13.95200000     8.42100000   -12.80600000
H       14.85600000     8.72600000   -12.73800000
H       13.54000000     9.02800000   -13.42100000
O        3.41200000    14.33800000    -1.08900000
H        4.13500000    14.96100000    -1.02100000
H        3.83100000    13.50800000    -1.31100000
O      -13.80700000     0.89700000     6.05800000
H      -13.67000000     0.65200000     6.97200000
H      -14.64800000     0.50000000     5.82500000
O       15.02200000    12.04000000     3.21400000
H       14.86100000    12.50400000     2.39200000
H       14.57300000    12.56300000     3.87700000
O       -7.55600000     8.63400000     2.57800000
H       -7.73000000     9.44700000     2.10500000
H       -7.20700000     8.03900000     1.91600000
O       -9.87700000     5.61000000     5.39500000
H       -9.79100000     6.53800000     5.61400000
H       -9.80300000     5.15800000     6.23600000
O       10.61200000    11.01400000    -3.16500000
H       10.36200000    10.60200000    -3.99100000
H        9.98600000    11.73000000    -3.05500000
O        0.77100000     8.46600000   -11.90200000
H        1.25400000     8.28400000   -12.70800000
H        0.67500000     7.61200000   -11.48200000
O       -1.17900000    12.92300000     0.42500000
H       -0.24300000    12.85400000     0.61200000
H       -1.42600000    12.05400000     0.10900000
O       10.47600000    10.16400000   -13.12700000
H        9.56600000     9.87200000   -13.11100000
H       10.69700000    10.21000000   -14.05700000
O        6.46300000    12.17100000    -8.39000000
H        6.72900000    11.94400000    -9.28100000
H        6.84500000    13.03400000    -8.23800000
O        2.36400000    11.86600000    13.26600000
H        1.70300000    12.11300000    13.91300000
H        1.86200000    11.49900000    12.53800000
O        1.35700000   -10.43200000     0.83300000
H        1.39100000   -10.48600000     1.78800000
H        0.76300000    -9.70200000     0.65600000
O      -11.81000000    12.46800000    -2.67100000
H      -12.66600000    12.04300000    -2.72300000
H      -11.42200000    12.33400000    -3.53500000
O       14.00200000     4.20500000   -11.07600000
H       14.87000000     3.82800000   -11.22100000
H       13.47200000     3.87200000   -11.80000000
O       12.63000000     3.89400000   -13.39600000
H       13.12300000     4.17900000   -14.16600000
H       12.65600000     2.93900000   -13.43400000
O      -14.51900000    10.87700000   -11.29600000
H      -14.08700000    10.33500000   -11.95700000
H      -13.84600000    11.49800000   -11.01800000
O        7.21600000     5.26900000    -6.65200000
H        7.10200000     4.32500000    -6.54900000
H        7.72200000     5.36400000    -7.45900000
O        6.13000000    10.78700000    -3.39200000
H        5.91300000    10.95000000    -4.31000000
H        6.10600000    11.65000000    -2.98200000
O       12.66700000   -13.81600000    -8.67100000
H       12.94100000   -13.33200000    -9.45100000
H       13.32300000   -14.50500000    -8.57200000
O        3.80300000     5.89700000    -3.59800000
H        3.60000000     5.26700000    -4.28900000
H        3.18100000     6.61200000    -3.73300000
O       12.90300000    13.92700000    -4.50000000
H       12.76200000    14.37500000    -3.66600000
H       13.81100000    13.63200000    -4.46400000
O       -4.79200000    13.32900000     2.63000000
H       -4.14300000    12.62800000     2.58300000
H       -5.62900000    12.89100000     2.47200000
O      -14.06700000    10.09000000     4.88800000
H      -13.13900000     9.87200000     4.97500000
H      -14.09900000    10.72000000     4.17000000
O       -2.42000000     1.42900000    13.83800000
H       -1.73900000     2.10100000    13.86800000
H       -2.23600000     0.93700000    13.03700000
O       14.81500000    -5.38700000   -10.99900000
H       14.54700000    -5.55400000   -11.90200000
H       15.64900000    -5.84600000   -10.90600000
O       10.25000000    13.55700000    -2.04400000
H       10.97700000    13.07100000    -1.65700000
H       10.66000000    14.31600000    -2.45600000
O       11.57000000     5.58000000     1.59500000
H       11.26900000     4.74100000     1.24900000
H       12.46200000     5.40900000     1.90000000
O      -13.76900000    14.96300000    -4.99000000
H      -13.27100000    14.40300000    -5.58600000
H      -14.61200000    15.08800000    -5.42600000
O      -14.56100000   -14.71700000    -8.79400000
H      -14.55600000   -14.78900000    -9.74900000
H      -14.01600000   -15.44500000    -8.49600000
O        5.41500000    11.31900000    -5.98100000
H        5.69300000    11.37300000    -6.89500000
H        5.18900000    12.21800000    -5.74400000
O        8.94700000    14.18800000    12.43500000
H        9.17300000    13.66100000    13.20100000
H        9.02500000    15.09400000    12.73700000
O        3.11200000   -13.49800000   -12.92300000
H        3.12700000   -13.68800000   -11.98600000
H        3.30600000   -14.33800000   -13.34100000
O        6.59500000     6.44600000   -11.73500000
H        7.50100000     6.60600000   -11.47200000
H        6.23900000     7.31500000   -11.91200000
O       10.14400000     3.13900000     0.59200000
H       10.42700000     2.28000000     0.90000000
H        9.57300000     3.46700000     1.28700000
O       11.25000000     8.08100000    -4.76400000
H       10.35100000     7.90300000    -4.48900000
H       11.18800000     8.88300000    -5.28300000
O       -6.84400000   -10.34200000    13.89300000
H       -6.46900000   -10.25700000    14.76900000
H       -7.32700000   -11.16800000    13.91700000
O      -14.13900000     8.03700000    -6.55200000
H      -14.50500000     8.44300000    -7.33800000
H      -14.83300000     8.11600000    -5.89700000
O        6.40100000   -12.14900000    12.78000000
H        6.93800000   -12.73000000    13.31900000
H        7.01600000   -11.49300000    12.44800000
O        4.40400000    10.26100000     2.69200000
H        4.15500000    10.52600000     3.57700000
H        3.82900000     9.52100000     2.49300000
O        9.99900000    11.50100000     9.05100000
H       10.77000000    11.41200000     8.49100000
H        9.33000000    10.96200000     8.62400000
O        5.09900000    12.31700000     8.35400000
H        5.84900000    12.14800000     7.78500000
H        4.91300000    13.24900000     8.23400000
O       11.38800000    13.66000000    -9.61100000
H       11.82800000    13.95000000    -8.81100000
H       11.84100000    12.85100000    -9.85200000
O        7.30800000    12.55200000   -13.92000000
H        8.23300000    12.61600000   -14.15700000
H        7.03700000    11.69400000   -14.24700000
O        2.92300000     5.74900000   -11.71400000
H        2.72500000     4.89900000   -12.10600000
H        3.08300000     6.32500000   -12.46100000
O       14.01300000     8.24000000     5.37100000
H       14.86700000     8.64200000     5.21200000
H       13.39200000     8.81000000     4.91600000
O        4.49300000     7.39700000     4.43500000
H        4.18500000     7.05600000     5.27500000
H        3.70500000     7.45200000     3.89500000
O       14.23600000     4.36000000    14.17500000
H       13.80400000     4.03400000    13.38500000
H       15.05500000     3.86800000    14.22100000
O        7.76300000     7.83600000     9.44900000
H        8.60000000     8.30100000     9.46800000
H        7.23100000     8.32700000     8.82200000
O       14.64200000     5.11200000    -5.32700000
H       15.44900000     5.51300000    -5.65300000
H       14.02300000     5.20000000    -6.05100000
O       15.04800000   -13.74600000     7.78800000
H       15.28200000   -14.39800000     7.12800000
H       14.10700000   -13.86100000     7.91700000
O       -0.07600000     9.31400000    13.92900000
H       -0.93400000     9.73700000    13.95100000
H        0.39900000     9.76900000    13.23400000
O      -13.20600000     5.51700000    11.18200000
H      -12.69900000     4.88900000    10.66900000
H      -13.81200000     5.90900000    10.55300000
O       11.71100000    -4.86700000    14.73200000
H       11.69100000    -4.31600000    15.51400000
H       11.56200000    -4.25900000    14.00700000
O       14.40900000    11.43700000    11.04800000
H       13.83400000    11.49000000    11.81000000
H       13.90200000    10.95200000    10.39600000
O       12.73800000     9.63400000     9.62600000
H       11.92300000     9.54600000     9.13300000
H       12.67700000     8.96700000    10.31100000
O       11.76100000     3.24700000     9.04100000
H       11.90800000     4.07800000     8.59100000
H       10.82700000     3.07400000     8.93100000
O      -11.84800000    10.71600000     8.21000000
H      -10.92100000    10.50200000     8.09600000
H      -11.84300000    11.57200000     8.64000000
O        9.18600000     6.77000000    12.24100000
H        9.87200000     7.25200000    11.78000000
H        8.40300000     7.30900000    12.13400000
O       13.37700000     0.01300000     5.25200000
H       13.38400000     0.94900000     5.04500000
H       12.49900000    -0.15000000     5.59500000
O       11.37300000     2.54300000    13.93300000
H       12.06400000     1.91200000    13.72700000
H       11.73500000     3.38900000    13.66800000
O       15.21500000    13.03700000     6.92700000
H       14.68600000    13.38700000     7.64400000
H       15.35200000    12.11800000     7.15500000
O       12.86600000     8.30600000    13.51600000
H       13.50500000     8.80500000    14.02400000
H       13.36900000     7.94100000    12.78900000
O       13.11900000     2.92300000    11.70000000
H       12.66900000     3.30800000    10.94900000
H       13.18000000     1.99000000    11.49000000
O        6.13300000     5.44400000     9.60700000
H        6.75100000     6.17100000     9.67200000
H        6.11900000     5.22300000     8.67600000
O       11.42600000   -14.31900000    11.60100000
H       11.19700000   -14.90800000    10.88300000
H       12.22000000   -14.69900000    11.97900000
O        9.40700000    -2.74000000    14.44700000
H        9.01500000    -1.86700000    14.43900000
H        8.67100000    -3.33300000    14.59600000
O      -10.89400000   -12.35600000   -13.40200000
H      -11.53100000   -11.89800000   -13.95100000
H      -11.42100000   -12.94200000   -12.86000000
O       14.38800000     7.01400000    11.55500000
H       15.10300000     6.51100000    11.94400000
H       14.77900000     7.43200000    10.78900000
O       11.76800000     7.10700000    10.88600000
H       12.61000000     6.69000000    11.06900000
H       11.44600000     6.66200000    10.10100000
O        9.58000000    14.22000000     9.72500000
H        9.59600000    13.95400000    10.64400000
H        9.77900000    13.42000000     9.24000000
O        4.70700000     7.83300000    10.29900000
H        4.81700000     7.11000000     9.68100000
H        5.42200000     7.72500000    10.92600000
O        6.04800000   -11.09400000     5.30900000
H        6.17300000   -11.04400000     4.36200000
H        6.91900000   -10.94300000     5.67500000
O       14.32900000    13.81800000     9.39400000
H       15.17100000    14.16900000     9.68700000
H       14.15600000    13.08700000     9.98800000
O        2.14600000   -13.78600000    12.15100000
H        2.78600000   -14.40100000    12.51200000
H        2.43200000   -12.92800000    12.46700000
O       11.46700000    11.40900000   -11.02900000
H       10.97600000    12.21800000   -10.88600000
H       11.12000000    11.05900000   -11.84900000
O        2.35000000    13.41600000     9.88000000
H        2.89100000    13.51100000    10.66400000
H        2.48500000    12.51100000     9.60300000
O        8.92900000     9.95800000     7.13800000
H        8.16200000     9.60400000     6.68800000
H        9.45900000    10.34300000     6.44000000
O        6.56200000     8.52100000     5.85000000
H        5.82700000     8.08600000     5.41900000
H        6.16600000     8.99800000     6.57800000
O      -11.51700000    14.70300000     8.92600000
H      -11.79500000    14.50500000     8.03300000
H      -11.08200000    15.55300000     8.86100000
O        9.73200000    -5.58000000     5.17700000
H       10.56300000    -5.36500000     5.60100000
H        9.06400000    -5.23900000     5.77200000
O      -11.98600000     6.16500000   -14.40300000
H      -12.82700000     6.62300000   -14.39400000
H      -11.80000000     6.02500000   -15.33200000
O        3.88300000    11.57800000     5.04000000
H        4.70700000    12.01100000     5.26600000
H        3.24500000    11.94300000     5.65200000
O        9.26700000   -13.32900000     8.42300000
H        8.39300000   -13.05000000     8.69900000
H        9.31100000   -14.25500000     8.66200000
O       14.11600000     1.13000000    14.10100000
H       14.72500000     1.86000000    13.98600000
H       14.67600000     0.35900000    14.18400000
O        8.90200000     5.45000000    -8.83500000
H        9.76400000     5.05100000    -8.71600000
H        8.93300000     5.83500000    -9.71100000
O        6.32800000     6.96100000     2.40800000
H        5.95100000     7.06600000     3.28200000
H        6.76600000     7.79300000     2.23400000
O       14.66700000    -8.53000000     6.80400000
H       14.27800000    -8.82500000     5.98100000
H       14.33600000    -9.14300000     7.46000000
O       -9.65100000     5.26500000     8.38000000
H       -9.25700000     5.81000000     9.06000000
H      -10.45700000     4.93200000     8.77600000
O        9.87600000    12.91800000    14.64900000
H       10.23800000    12.07300000    14.38300000
H       10.49200000    13.24700000    15.30400000
O        7.62600000   -14.39300000   -14.91800000
H        8.15900000   -14.67000000   -14.17300000
H        8.26200000   -14.17800000   -15.60100000
O      -12.62600000   -12.55300000     4.70200000
H      -12.65400000   -11.89400000     4.00800000
H      -13.29900000   -13.19000000     4.45600000
O        1.33800000    14.26400000     3.65100000
H        0.40100000    14.17700000     3.47500000
H        1.44600000    13.92900000     4.54200000
O        5.69600000     9.21300000     8.26600000
H        5.39300000    10.11200000     8.39200000
H        5.14900000     8.69100000     8.85300000
O      -13.82200000    -8.77900000   -14.03300000
H      -13.49200000    -8.32500000   -14.80900000
H      -13.07800000    -8.79700000   -13.43200000
O      -10.12700000    10.86700000    11.03600000
H      -11.06200000    11.03300000    11.15300000
H       -9.98900000     9.99600000    11.41000000
O       -4.68900000    11.23700000     7.03100000
H       -3.86200000    10.76600000     7.13600000
H       -4.42900000    12.14900000     6.89400000
O       -1.57600000    14.25200000     3.16500000
H       -1.26900000    13.66200000     2.47700000
H       -2.34500000    14.68000000     2.79000000
