2637
None None None
C        0.00000000     0.00000000     0.00000000
C       -1.18700000     0.98400000     0.00000000
O       -2.40600000     0.22400000     0.00000000
H       -3.11700000     0.91300000     0.00000000
H       -1.12500000     1.63100000     0.88300000
H       -1.12500000     1.63100000    -0.88300000
H        0.93900000     0.54600000     0.00000000
H       -0.03600000    -0.63300000     0.88100000
H       -0.03600000    -0.63300000    -0.88100000
O      -11.96400000    -0.82200000    -1.23900000
H      -12.06400000    -0.07300000    -0.65200000
H      -11.41900000    -1.43900000    -0.75100000
O        3.31700000     2.50700000   -11.53800000
H        3.22200000     1.62900000   -11.16800000
H        2.55200000     2.61200000   -12.10300000
O        5.20300000    -9.23400000    14.93100000
H        4.45600000    -9.54300000    15.44400000
H        4.83500000    -8.57100000    14.34700000
O       -9.12100000    12.77700000   -10.86700000
H       -9.82600000    12.22000000   -10.53700000
H       -9.09600000    13.51600000   -10.25900000
O        5.04000000   -13.34800000     6.73500000
H        4.88000000   -14.19700000     6.32300000
H        5.55000000   -12.85900000     6.08900000
O       -9.37400000     4.21300000     6.47000000
H       -9.70100000     4.86800000     7.08800000
H       -8.43200000     4.37600000     6.42500000
O       -4.20000000    -2.52900000    -2.91900000
H       -4.79500000    -3.25200000    -2.72000000
H       -3.32800000    -2.92100000    -2.89100000
O      -10.20600000    -7.52800000    -6.29900000
H      -10.67100000    -8.32500000    -6.55200000
H      -10.18200000    -7.00100000    -7.09800000
O      -15.44900000    -0.42400000    -6.46400000
H      -16.27200000    -0.10400000    -6.83600000
H      -15.17600000    -1.12500000    -7.05500000
O        2.77100000     4.11600000    -5.71600000
H        2.38400000     3.67500000    -4.95900000
H        2.06400000     4.65900000    -6.06400000
O       -7.02100000    -5.81500000     2.82600000
H       -7.62700000    -6.24800000     3.42800000
H       -6.69100000    -6.52100000     2.27000000
O       -4.85900000    -3.14900000    -9.29600000
H       -5.44300000    -2.69900000    -8.68600000
H       -4.40600000    -3.80000000    -8.76000000
O        5.99500000    -4.99300000    -8.66400000
H        5.90600000    -4.75900000    -9.58800000
H        6.65400000    -4.38600000    -8.32600000
O      -10.47000000    -0.81100000    -6.05000000
H      -10.32000000    -0.78000000    -5.10500000
H      -11.33100000    -0.41100000    -6.17000000
O       13.22300000     4.46300000     0.20200000
H       13.56300000     5.03600000     0.89000000
H       13.81300000     4.60100000    -0.53900000
O      -13.55200000    -7.33400000    13.84700000
H      -12.81100000    -6.92200000    14.29300000
H      -13.22200000    -7.53700000    12.97200000
O       -3.15400000    11.05500000    -0.80200000
H       -2.22100000    10.86300000    -0.89100000
H       -3.56100000    10.62400000    -1.55300000
O       11.95200000    -8.93400000    -9.45100000
H       11.01200000    -8.81400000    -9.58700000
H       12.13100000    -9.81800000    -9.77000000
O        2.27800000     6.86200000   -14.31900000
H        1.62400000     7.55200000   -14.43300000
H        2.19400000     6.32000000   -15.10300000
O       -5.40000000     1.48700000    -8.33500000
H       -4.95100000     2.32800000    -8.25100000
H       -6.20800000     1.59600000    -7.83300000
O        2.34700000    -9.64000000    10.04600000
H        2.03000000    -9.98300000    10.88100000
H        2.28700000   -10.38100000     9.44300000
O       12.71500000    -4.55800000     0.77300000
H       11.77600000    -4.49700000     0.59900000
H       12.77200000    -4.90100000     1.66500000
O      -13.69600000     6.27300000   -11.15400000
H      -12.90300000     6.80900000   -11.15300000
H      -13.41200000     5.42300000   -10.81800000
O        1.89300000    -0.04100000    -4.33500000
H        1.16700000    -0.13300000    -4.95200000
H        1.61900000    -0.54100000    -3.56600000
O       -2.55500000     0.18100000   -14.46500000
H       -3.18400000    -0.52000000   -14.29400000
H       -3.00700000     0.76600000   -15.07300000
O        0.84800000     7.53100000    -1.63300000
H        1.19300000     8.40700000    -1.80200000
H        1.57800000     6.94300000    -1.82700000
O      -11.65300000    14.28900000    11.23400000
H      -11.18700000    13.61200000    10.74300000
H      -12.30100000    14.63000000    10.61700000
O       -4.32500000     8.62100000    -6.45700000
H       -4.39500000     9.38500000    -7.02800000
H       -4.00900000     7.92100000    -7.02900000
O       -1.55400000    11.55200000   -13.10900000
H       -0.93000000    11.54600000   -13.83500000
H       -1.11300000    11.06700000   -12.41100000
O      -14.49600000    -6.62900000    -9.86200000
H      -14.17200000    -7.41700000   -10.29700000
H      -13.71000000    -6.20300000    -9.51900000
O      -11.70700000   -12.80200000     1.63800000
H      -12.63800000   -12.66500000     1.46400000
H      -11.31700000   -12.92600000     0.77300000
O        0.89300000    -0.11600000    13.38500000
H        1.73500000    -0.51400000    13.60600000
H        1.05600000     0.34900000    12.56400000
O       -5.06600000   -12.31600000     3.14600000
H       -5.32800000   -11.39500000     3.13900000
H       -4.39300000   -12.36900000     3.82400000
O       -0.93000000   -13.81700000    -6.12800000
H       -1.32000000   -13.06900000    -6.58000000
H       -0.99500000   -14.53700000    -6.75500000
O       -9.21000000    12.42900000    -5.24200000
H       -8.99300000    13.31200000    -4.94400000
H       -9.06800000    12.45300000    -6.18800000
O       -3.80800000    -5.42100000    11.96000000
H       -4.20900000    -4.67000000    11.52400000
H       -3.09900000    -5.04500000    12.48200000
O       12.45000000     1.07400000    -7.35700000
H       12.36400000     1.65200000    -8.11500000
H       12.10300000     1.58400000    -6.62500000
O       -7.73100000    -8.11300000   -11.49800000
H       -7.06700000    -7.59100000   -11.94800000
H       -8.09700000    -7.52000000   -10.84100000
O        8.30000000    -5.08600000     2.36500000
H        8.63600000    -5.97900000     2.29500000
H        8.20600000    -4.93800000     3.30600000
O       -8.29100000    -0.72700000    -7.90800000
H       -8.92600000    -0.98800000    -7.24100000
H       -7.72000000    -1.48900000    -8.00700000
O       -6.99900000   -11.69000000    -2.69900000
H       -6.81900000   -11.23400000    -3.52100000
H       -6.31200000   -11.39100000    -2.10200000
O       -0.23400000    -0.50400000    -5.98900000
H       -0.92000000     0.06900000    -6.33100000
H       -0.68300000    -1.32600000    -5.79200000
O       -8.43600000     2.80400000    -2.49800000
H       -8.95200000     3.39700000    -1.95100000
H       -8.47100000     1.96400000    -2.04000000
O        6.37000000   -10.89200000   -12.33600000
H        5.59700000   -10.92200000   -12.90000000
H        6.71300000   -10.00500000   -12.44700000
O        5.14400000     6.00400000    -0.05300000
H        4.79100000     6.54100000     0.65700000
H        5.86300000     6.52400000    -0.41300000
O       -8.87700000    -6.29400000    14.85200000
H       -8.72500000    -5.75500000    15.62800000
H       -8.02000000    -6.35600000    14.43100000
O       -5.67500000    11.38700000    11.79500000
H       -5.68300000    11.78600000    10.92500000
H       -6.46900000    11.71600000    12.21700000
O       -4.89300000    11.80000000   -13.44200000
H       -4.83400000    12.75000000   -13.34000000
H       -4.44600000    11.44800000   -12.67300000
O      -11.39800000   -10.88600000    -2.65300000
H      -12.25100000   -10.54700000    -2.92700000
H      -10.85400000   -10.10600000    -2.54600000
O       -2.93800000    -2.17800000    12.05800000
H       -2.51100000    -2.45000000    11.24500000
H       -2.22300000    -2.09300000    12.68800000
O       -4.71900000     6.32000000    -2.02000000
H       -4.74000000     7.08900000    -2.59100000
H       -3.79800000     6.06100000    -2.00100000
O       -0.51400000    -9.99500000     8.20800000
H        0.03800000    -9.35400000     7.76000000
H       -0.81800000   -10.57800000     7.51300000
O       -1.55200000     5.02900000    -7.19300000
H       -2.06400000     4.46400000    -6.61500000
H       -2.17800000     5.68300000    -7.50500000
O      -11.16800000    -0.41700000    -8.94600000
H      -10.84200000    -1.21600000    -8.53100000
H      -11.68900000     0.01100000    -8.26700000
O       -4.14300000    -9.56600000     3.43100000
H       -3.27400000    -9.18000000     3.32400000
H       -4.31900000    -9.50500000     4.37000000
O      -13.08500000     9.22400000   -10.00700000
H      -13.52500000     8.63400000    -9.39500000
H      -12.29400000     8.75300000   -10.26900000
O       -6.69400000    -8.49900000    -1.44000000
H       -7.61700000    -8.67600000    -1.25900000
H       -6.54000000    -8.88700000    -2.30100000
O       -9.62600000     4.55000000    -0.78900000
H      -10.28800000     4.45900000    -0.10400000
H       -8.99500000     5.17400000    -0.43100000
O       -3.35800000    -9.75500000    -1.96500000
H       -2.52900000   -10.22100000    -2.07700000
H       -3.71500000   -10.09600000    -1.14400000
O       -5.16600000     1.01800000    -3.09900000
H       -6.01400000     0.61100000    -3.27500000
H       -5.35600000     1.95500000    -3.04400000
O       -4.80700000    -5.84500000    -5.65000000
H       -4.74400000    -6.55400000    -5.00900000
H       -5.41200000    -5.21800000    -5.25600000
O       -8.70800000    14.31500000   -13.32000000
H       -9.40400000    13.79000000   -13.71500000
H       -8.79800000    14.16300000   -12.37900000
O       -0.39500000     4.11000000   -10.45100000
H       -0.21800000     4.10600000   -11.39100000
H        0.16300000     3.41600000   -10.09900000
O      -10.07800000   -13.61700000   -10.53700000
H       -9.22900000   -14.02600000   -10.70600000
H       -9.92400000   -12.68200000   -10.66900000
O       -6.67300000    -5.77600000    -8.43600000
H       -6.18400000    -6.04200000    -7.65700000
H       -6.06600000    -5.21500000    -8.91900000
O       -5.11700000     3.89900000     0.96600000
H       -4.48200000     3.38600000     0.46600000
H       -5.94600000     3.43600000     0.84900000
O       -7.01200000    -4.41600000    -5.02100000
H       -6.77600000    -4.17600000    -4.12500000
H       -7.94500000    -4.62700000    -4.97500000
O       -7.42200000     8.58800000    -9.27300000
H       -6.92100000     8.20600000    -8.55200000
H       -6.78000000     8.71300000    -9.97200000
O       -3.89400000   -11.47000000    -8.35100000
H       -3.50200000   -10.99000000    -7.62100000
H       -3.25900000   -12.15700000    -8.55600000
O      -13.32100000    -4.17600000     0.93900000
H      -13.88700000    -3.70400000     0.32800000
H      -13.92700000    -4.62900000     1.52600000
O      -12.29200000    -8.56800000     3.54600000
H      -11.54900000    -9.10300000     3.26800000
H      -13.04300000    -8.94300000     3.08500000
O       -8.82000000    -9.01000000    -4.23000000
H       -9.43500000    -8.43200000    -4.68200000
H       -8.44400000    -9.55100000    -4.92400000
O      -11.59500000   -10.18200000    -6.38900000
H      -12.26600000   -10.82000000    -6.14900000
H      -11.33300000   -10.43000000    -7.27500000
O        2.12100000    -3.30000000    -3.90800000
H        2.70500000    -3.33900000    -4.66500000
H        1.24400000    -3.40300000    -4.27500000
O       -3.46900000   -11.75500000   -12.35400000
H       -3.83700000   -11.38500000   -13.15600000
H       -2.81000000   -11.11800000   -12.07600000
O        7.59400000     4.75400000    10.62300000
H        6.86000000     4.44900000    11.15500000
H        7.99000000     5.45600000    11.14000000
O      -12.08900000    -4.46500000     4.23600000
H      -11.37900000    -5.00800000     3.89200000
H      -11.94900000    -3.60600000     3.83700000
O       -2.48000000    -4.80400000   -11.83200000
H       -2.00300000    -5.55100000   -11.47200000
H       -1.86400000    -4.07300000   -11.76900000
O       -5.40400000    -3.21200000   -14.52500000
H       -5.12200000    -2.53200000   -15.13700000
H       -5.49100000    -2.75800000   -13.68600000
O       -9.88700000    14.28900000    -7.60800000
H      -10.46200000    14.82500000    -7.06300000
H       -9.14600000    14.86000000    -7.81100000
O       -0.44600000    -7.88500000    -6.01300000
H       -0.46500000    -7.88500000    -5.05600000
H        0.45600000    -7.65100000    -6.23400000
O        0.07800000     5.83100000    -5.15900000
H       -0.18800000     5.60700000    -6.05000000
H       -0.29000000     5.13400000    -4.61600000
O        2.75200000     5.19200000    -1.31100000
H        3.56800000     5.31100000    -0.82600000
H        2.95800000     5.47400000    -2.20200000
O       -8.72800000     0.45100000    -0.89400000
H       -9.34400000     0.16400000    -0.22000000
H       -8.37300000    -0.36200000    -1.25500000
O        6.07400000    -2.51600000    -6.30600000
H        6.11800000    -1.56500000    -6.39800000
H        6.73300000    -2.84800000    -6.91600000
O      -14.50900000   -12.66000000    -2.62100000
H      -14.41500000   -13.09900000    -3.46600000
H      -14.30400000   -11.74300000    -2.80200000
O       -6.28700000    -0.93400000     5.70200000
H       -6.17300000    -1.88400000     5.69000000
H       -5.86000000    -0.63100000     4.90000000
O      -10.20700000    -3.36300000    13.35300000
H       -9.40000000    -3.28800000    13.86100000
H      -10.88900000    -3.52100000    14.00600000
O       -5.94200000    -5.95300000   -12.05400000
H       -5.28500000    -5.89200000   -12.74700000
H       -5.49100000    -5.64400000   -11.26800000
O      -11.37800000     0.92300000     8.12800000
H      -11.52100000     1.40300000     7.31200000
H      -11.11400000     1.59400000     8.75700000
O      -13.17000000     1.95800000    -0.63700000
H      -12.55700000     2.60800000    -0.29500000
H      -13.84000000     1.87800000     0.04200000
O       -6.11200000   -12.87600000    -5.83400000
H       -5.19900000   -12.71300000    -6.07100000
H       -6.06900000   -13.24200000    -4.95100000
O       -3.56900000    -5.10500000    -7.95600000
H       -3.16100000    -5.54100000    -8.70500000
H       -3.46700000    -5.72400000    -7.23300000
O        4.59700000     0.05800000    -4.14200000
H        4.38500000     0.47500000    -3.30700000
H        3.74600000    -0.14100000    -4.53300000
O        2.16600000    -3.68400000    12.59700000
H        1.85500000    -3.62400000    11.69400000
H        3.11400000    -3.57000000    12.53300000
O      -11.01900000    -2.29900000     3.14500000
H      -10.25300000    -2.78100000     2.83300000
H      -11.39600000    -1.91100000     2.35500000
O      -11.61500000    -7.50600000     6.09500000
H      -11.70900000    -7.78000000     5.18200000
H      -11.62500000    -6.55000000     6.06100000
O        0.71400000    -5.66000000     6.91300000
H        0.04100000    -6.23400000     6.54700000
H        1.29900000    -6.24900000     7.38900000
O        1.24900000   -13.18200000     2.37200000
H        1.06100000   -12.33200000     2.77000000
H        0.50700000   -13.73300000     2.62000000
O      -11.72800000    10.15200000    -1.86700000
H      -10.90300000    10.58400000    -2.09000000
H      -12.21100000    10.80300000    -1.35900000
O       -9.99900000     0.36100000    -3.55700000
H      -10.61800000     0.88000000    -4.07000000
H      -10.08900000     0.69500000    -2.66400000
O       -2.64400000     1.67600000    -6.49600000
H       -2.70600000     1.44400000    -7.42200000
H       -3.30500000     2.35700000    -6.37400000
O       -7.58300000   -10.35900000    -6.38800000
H       -7.22200000   -10.04300000    -7.21600000
H       -7.10400000   -11.16900000    -6.21100000
O       -6.86300000    15.46100000     4.55400000
H       -6.96400000    14.82200000     3.84900000
H       -6.31200000    16.14800000     4.17800000
O      -10.18700000    11.67600000     0.78400000
H      -11.10800000    11.90400000     0.65900000
H       -9.82900000    11.63000000    -0.10200000
O      -11.91300000    -6.45700000    -8.44200000
H      -12.48500000    -6.16600000    -7.73200000
H      -11.76200000    -5.67100000    -8.96700000
O        4.84600000    -6.37500000     2.85300000
H        4.40500000    -6.05700000     3.64100000
H        5.21100000    -5.58800000     2.44800000
O      -12.53800000    14.69800000    -0.61200000
H      -12.63200000    14.23400000    -1.44400000
H      -12.00700000    15.46600000    -0.82400000
O       -8.43900000     1.09200000   -14.43900000
H       -7.94700000     0.40900000   -13.98400000
H       -7.93500000     1.89200000   -14.28900000
O       -6.31300000   -11.61300000    -9.35900000
H       -5.46400000   -11.76200000    -8.94100000
H       -6.28500000   -12.14200000   -10.15600000
O       -7.05900000     1.90200000     0.61000000
H       -7.35600000     1.51300000     1.43200000
H       -7.68200000     1.58400000    -0.04400000
O        8.86000000    -3.78800000     7.43400000
H        8.32100000    -4.35700000     7.98300000
H        8.26300000    -3.09800000     7.14300000
O       -3.09300000    -8.41800000     5.90500000
H       -2.81800000    -7.50400000     5.83400000
H       -2.63000000    -8.74800000     6.67500000
O       -2.09300000    -4.47800000    14.09600000
H       -1.36600000    -5.03800000    14.36800000
H       -1.73100000    -3.94300000    13.38900000
O       -1.07800000    -7.38000000    13.04800000
H       -0.85300000    -7.45500000    13.97500000
H       -1.93500000    -7.80000000    12.97400000
O        3.69100000     2.52400000    -8.20700000
H        3.54100000     3.29900000    -8.74700000
H        3.04500000     2.59200000    -7.50400000
O        8.84200000     0.82300000    -5.41300000
H        9.23100000     0.09000000    -4.93500000
H        9.24300000     0.78400000    -6.28100000
O      -10.34300000    -2.94700000    -2.71400000
H      -10.57500000    -2.72800000    -1.81100000
H       -9.50000000    -2.51700000    -2.85500000
O       12.98600000   -12.12900000    -1.42000000
H       13.10500000   -11.77400000    -0.53900000
H       13.87500000   -12.27000000    -1.74500000
O       -0.73800000    -6.63500000    -1.43000000
H       -0.57900000    -7.35500000    -2.04000000
H        0.13500000    -6.36900000    -1.14100000
O       -2.14300000    13.25000000    -3.79500000
H       -2.47300000    13.14000000    -2.90300000
H       -2.87200000    13.64600000    -4.27300000
O      -14.88500000     3.31500000    14.44900000
H      -14.18000000     3.60100000    15.02900000
H      -14.43800000     2.87300000    13.72800000
O      -13.60900000    -1.06400000    -3.48300000
H      -13.11800000    -1.17900000    -2.66900000
H      -13.69200000    -0.11500000    -3.58000000
O      -12.00400000    -3.52500000    -4.80900000
H      -12.72700000    -2.91400000    -4.67200000
H      -11.39800000    -3.34500000    -4.08900000
O      -13.61500000   -12.22800000    -5.51400000
H      -14.16400000   -11.49000000    -5.78100000
H      -14.20300000   -12.98300000    -5.53300000
O      -13.06500000     1.59300000    -3.40400000
H      -13.11000000     1.66300000    -2.45000000
H      -12.97600000     2.49700000    -3.70700000
O       -0.37400000    -2.43400000    13.02500000
H        0.46300000    -2.89400000    13.09800000
H       -0.17200000    -1.53000000    13.26700000
O       -6.59000000     1.43400000   -11.12600000
H       -6.31900000     1.30200000   -10.21700000
H       -6.17900000     2.26000000   -11.38100000
O       -8.04000000     3.78700000     2.27000000
H       -8.27200000     3.08000000     2.87200000
H       -7.84300000     3.34400000     1.44500000
O       -8.06500000   -13.44600000    -0.93700000
H       -7.89800000   -12.69300000    -1.50400000
H       -7.50000000   -13.30300000    -0.17600000
O       -3.75500000     8.94200000   -10.96800000
H       -4.51400000     8.42600000   -11.23900000
H       -3.01000000     8.50900000   -11.38400000
O      -12.22900000    13.77000000    -8.89000000
H      -12.55200000    14.62500000    -9.17500000
H      -11.34500000    13.94200000    -8.56800000
O      -13.96200000     7.63400000     2.86000000
H      -13.24300000     7.31200000     2.31800000
H      -13.77800000     8.56600000     2.97500000
O        2.90600000    -6.15000000    -9.03100000
H        3.82400000    -6.11900000    -8.76000000
H        2.76000000    -7.06200000    -9.28000000
O      -10.28200000     1.58100000   -10.68800000
H       -9.49000000     1.14500000   -11.00200000
H      -10.46700000     1.16400000    -9.84600000
O       -0.45000000    -2.84600000   -11.27700000
H        0.37000000    -3.32300000   -11.15400000
H       -0.62100000    -2.43800000   -10.42700000
O       -2.46400000     0.56100000    -3.74400000
H       -3.24900000     0.87300000    -3.29400000
H       -2.58400000     0.83400000    -4.65300000
O       -9.35000000    -4.08800000     1.91200000
H       -8.41400000    -4.28500000     1.87400000
H       -9.75400000    -4.89900000     2.22100000
O       -6.98300000     5.23300000     7.10000000
H       -6.21800000     4.89900000     6.63000000
H       -6.73800000     6.12300000     7.35500000
O       -7.19700000     5.91900000   -13.40100000
H       -7.80200000     5.28100000   -13.02300000
H       -7.31300000     6.70500000   -12.86700000
O       -2.64100000   -13.93300000    -9.87500000
H       -1.82400000   -13.95400000    -9.37800000
H       -2.36700000   -13.98700000   -10.79100000
O       -7.95400000     2.82500000    -5.31600000
H       -7.97300000     3.74300000    -5.58900000
H       -8.08800000     2.85400000    -4.36900000
O       -4.22400000    -5.62600000   -14.18200000
H       -4.61200000    -4.79500000   -14.45400000
H       -3.28000000    -5.47100000   -14.20800000
O       -2.03000000     6.20900000     4.86500000
H       -2.90300000     6.02300000     5.20900000
H       -1.97100000     5.68400000     4.06600000
O       -7.30300000     0.33000000    -4.48800000
H       -8.18600000     0.17500000    -4.15100000
H       -7.35500000     1.18900000    -4.90800000
O        9.69100000     1.08000000     0.59500000
H       10.51000000     0.95500000     0.11600000
H        9.74600000     0.46700000     1.32800000
O       -1.35300000    -9.46700000    -8.26400000
H       -0.79700000   -10.24300000    -8.33300000
H       -0.81700000    -8.82800000    -7.79400000
O       -1.34400000     3.87700000    13.84200000
H       -1.06100000     4.75200000    13.57300000
H       -0.82400000     3.68600000    14.62200000
O       -8.35700000    -1.24500000    11.76800000
H       -8.58500000    -1.76200000    12.54100000
H       -7.65900000    -0.66200000    12.06500000
O        2.72100000     4.14800000    14.54200000
H        3.08900000     3.26600000    14.49100000
H        3.41300000     4.71700000    14.20500000
O       11.36800000    -2.01600000    -2.34900000
H       10.88300000    -2.83600000    -2.26200000
H       12.23100000    -2.28000000    -2.66800000
O        3.71900000    -3.54400000    -6.18100000
H        4.62200000    -3.23500000    -6.25900000
H        3.20400000    -2.90800000    -6.67800000
O       -2.40900000    -2.45700000    -6.68900000
H       -3.12700000    -2.05000000    -6.20300000
H       -2.69400000    -3.36000000    -6.82600000
O      -11.65300000   -14.52700000    -5.84800000
H      -11.13100000   -14.16800000    -5.13100000
H      -12.37700000   -13.90900000    -5.95100000
O      -12.88700000     0.79000000    -7.00500000
H      -13.48500000     0.91700000    -7.74100000
H      -13.35900000     0.21000000    -6.40900000
O       -2.59300000    -4.24900000     0.42100000
H       -1.96700000    -3.53500000     0.54100000
H       -2.07400000    -4.96200000     0.04600000
O       12.71700000    -7.74500000     0.11700000
H       12.51000000    -8.15700000    -0.72100000
H       11.89300000    -7.34600000     0.39800000
O       -9.73400000    -1.96700000     5.80200000
H      -10.32100000    -1.86100000     5.05300000
H       -9.27700000    -1.12900000     5.86900000
O      -13.89100000   -12.06400000     0.02000000
H      -14.09900000   -12.48200000    -0.81600000
H      -13.32600000   -11.32700000    -0.21500000
O        4.26900000   -13.30500000    -0.60600000
H        5.16000000   -13.43200000    -0.93200000
H        4.24300000   -12.38800000    -0.33100000
O       -3.13200000     3.69400000   -10.28900000
H       -3.25900000     3.98100000    -9.38500000
H       -2.19900000     3.83000000   -10.45500000
O       -4.87700000    -1.26600000    -5.36900000
H       -4.59200000    -1.31100000    -4.45700000
H       -5.61600000    -0.65800000    -5.36000000
O      -10.79600000     2.10000000   -13.75600000
H       -9.88700000     1.90400000   -13.52700000
H      -10.99000000     1.51400000   -14.48700000
O      -10.12400000   -13.20100000    -4.16100000
H       -9.37600000   -12.60600000    -4.11700000
H      -10.88300000   -12.64700000    -3.97700000
O       -2.04800000    -5.19500000    -4.96800000
H       -2.99900000    -5.26900000    -5.05000000
H       -1.70800000    -5.97800000    -5.40200000
O       -2.24400000     1.49600000     4.91500000
H       -2.70200000     1.10900000     4.16900000
H       -1.93200000     2.34200000     4.59100000
O        1.87900000    -9.71900000   -14.66600000
H        0.96700000    -9.45100000   -14.55000000
H        2.11300000   -10.13800000   -13.83700000
O      -10.00300000    -2.74100000   -11.87400000
H      -10.82300000    -2.24800000   -11.91100000
H       -9.36500000    -2.11900000   -11.52500000
O        4.70000000    -2.53700000     2.60100000
H        5.24600000    -3.25000000     2.27000000
H        4.82600000    -1.82600000     1.97200000
O        0.01100000    -3.75000000    -5.41800000
H       -0.77800000    -4.13900000    -5.04100000
H        0.24800000    -4.33500000    -6.13700000
O       -4.20500000    -2.55600000   -11.86000000
H       -4.48900000    -2.53400000   -10.94700000
H       -3.80100000    -3.41700000   -11.96600000
O       -5.48200000     3.68000000    -2.68200000
H       -6.41400000     3.51700000    -2.53900000
H       -5.40100000     4.63400000    -2.67700000
O        0.71700000     6.07000000     0.96900000
H        1.45600000     5.47600000     0.83800000
H        0.63500000     6.53900000     0.13800000
O       -9.70300000   -10.61900000    -8.72200000
H       -9.26100000   -10.33600000    -7.92200000
H       -9.30800000   -10.08900000    -9.41500000
O        1.73700000    -3.82600000     9.71400000
H        0.96600000    -4.28900000     9.38600000
H        2.47400000    -4.24200000     9.26800000
O        4.90800000     2.32000000   -13.51400000
H        5.26500000     3.19400000   -13.67300000
H        4.32000000     2.43300000   -12.76800000
O       11.06800000    -1.41000000     1.53000000
H       11.41600000    -1.99600000     2.20200000
H       10.38600000    -1.92200000     1.09500000
O       12.39700000    -3.56200000    -5.35900000
H       12.81100000    -3.32200000    -4.53000000
H       12.81700000    -2.99900000    -6.00900000
O       -1.18600000    12.07200000    -6.13300000
H       -1.24900000    12.32800000    -5.21200000
H       -1.23800000    11.11600000    -6.12000000
O       -9.65300000    -5.25600000    -5.33200000
H      -10.43100000    -4.70100000    -5.38900000
H       -9.89200000    -6.05400000    -5.80400000
O        1.88900000    -4.30100000   -10.66000000
H        2.47900000    -3.55700000   -10.53500000
H        2.14100000    -4.92400000    -9.97900000
O       -1.52100000    -3.16500000    -2.49500000
H       -0.77200000    -2.57500000    -2.58400000
H       -1.24300000    -3.97200000    -2.92900000
O      -10.19000000     4.85200000    -4.50300000
H      -10.85300000     5.09700000    -3.85800000
H      -10.66200000     4.31600000    -5.14000000
O       -5.55200000    -9.66000000    -3.91500000
H       -5.63800000    -8.98900000    -4.59300000
H       -4.70500000    -9.48200000    -3.50700000
O       -7.71200000     8.96700000    -1.81400000
H       -6.92100000     9.43700000    -2.07800000
H       -8.43100000     9.50100000    -2.15100000
O       -8.08300000    -0.69600000   -10.71300000
H       -7.40100000    -0.08200000   -10.98400000
H       -8.15900000    -0.56900000    -9.76700000
O       -7.49300000     5.51100000    -3.34300000
H       -8.39300000     5.18600000    -3.37800000
H       -7.58400000     6.45800000    -3.23500000
O       -7.57900000    15.05300000   -10.28000000
H       -6.82500000    15.31900000   -10.80700000
H       -7.42300000    15.44900000    -9.42300000
O      -12.04700000    12.75900000    -5.04700000
H      -11.11200000    12.55100000    -5.04500000
H      -12.08500000    13.69000000    -5.26500000
O        1.77200000    -8.70000000    -8.68000000
H        2.68900000    -8.88500000    -8.88200000
H        1.28300000    -9.09000000    -9.40400000
O        8.73600000    -7.06700000    -6.39000000
H        8.84600000    -7.76600000    -7.03500000
H        9.41400000    -6.42900000    -6.61000000
O       -6.43500000    -2.65500000    -7.12400000
H       -5.68100000    -2.21900000    -6.72700000
H       -6.80700000    -3.18300000    -6.41800000
O        1.75600000    -3.16400000     6.07300000
H        1.49300000    -4.00000000     6.45700000
H        0.93900000    -2.67400000     5.98000000
O        0.32200000   -10.86800000     4.04800000
H        1.02500000   -10.21800000     4.04500000
H        0.11200000   -10.99000000     4.97400000
O       -4.44000000    -6.37000000     8.60700000
H       -4.16500000    -7.00300000     9.27100000
H       -4.15400000    -5.52400000     8.95100000
O        2.25400000    -5.86100000     2.01600000
H        2.11000000    -5.04600000     2.49700000
H        3.17000000    -6.08100000     2.18500000
O       -8.26100000    -4.79200000   -13.09800000
H       -7.38600000    -5.10200000   -12.86600000
H       -8.71500000    -4.70300000   -12.26000000
O       -8.61800000    -4.94300000    11.48900000
H       -9.00600000    -4.34600000    12.12900000
H       -8.21600000    -4.36900000    10.83800000
O       -2.59700000    -6.13700000     2.78200000
H       -3.51300000    -6.02400000     3.03800000
H       -2.36700000    -5.31700000     2.34500000
O       11.04800000    -1.00700000    -8.42400000
H       10.12800000    -0.77300000    -8.54600000
H       11.44600000    -0.22300000    -8.04600000
O      -10.69300000    -4.66000000     6.54400000
H      -11.59700000    -4.41300000     6.73800000
H      -10.20300000    -3.84000000     6.59900000
O       -0.38600000    -0.85100000     6.50900000
H       -1.15600000    -0.28500000     6.45300000
H       -0.34000000    -1.10300000     7.43100000
O      -10.70900000    -8.64600000   -10.46000000
H      -10.14700000    -7.90400000   -10.68300000
H      -10.95800000    -8.49300000    -9.54800000
O        5.41500000     6.39400000     6.66300000
H        5.44500000     7.34800000     6.58900000
H        5.13200000     6.09600000     5.79900000
O        0.11400000    -1.71300000     9.32700000
H        0.86700000    -2.11600000     9.75900000
H       -0.57700000    -2.37400000     9.38300000
O        4.22300000    -1.81500000     6.52000000
H        3.48100000    -1.79000000     7.12300000
H        3.94900000    -1.27400000     5.77900000
O        7.50200000    -3.22100000   -11.65900000
H        6.61000000    -2.87500000   -11.67700000
H        8.02700000    -2.55300000   -12.10000000
O       -8.20500000    11.53100000     8.71100000
H       -7.55600000    11.73300000     8.03700000
H       -9.01200000    11.36400000     8.22400000
O        2.33200000     0.27400000     5.72600000
H        2.75500000     0.69500000     6.47500000
H        1.44000000     0.09500000     6.02400000
O       -1.10900000     0.66800000     8.95500000
H       -0.45400000     1.22200000     8.53000000
H       -0.59800000     0.00100000     9.41300000
O        4.04200000     2.91700000     2.25700000
H        4.77200000     3.52000000     2.11800000
H        4.18000000     2.57200000     3.13900000
O        1.63800000    -5.48200000    -0.46900000
H        2.12300000    -4.65700000    -0.46700000
H        1.67800000    -5.78600000     0.43800000
O        0.97400000   -10.20600000   -11.30600000
H        1.23800000   -11.06900000   -10.98700000
H        0.24800000   -10.38400000   -11.90500000
O       -3.94200000    -1.44700000     8.48100000
H       -3.28900000    -1.34000000     7.78900000
H       -4.25700000    -0.56000000     8.65300000
O       -6.78500000    -9.74800000     1.67900000
H       -7.60700000    -9.73100000     1.18900000
H       -7.05400000    -9.78700000     2.59700000
O       -5.80000000    -4.61000000    -2.40200000
H       -5.24400000    -5.38200000    -2.51000000
H       -5.90200000    -4.51900000    -1.45400000
O       -4.56500000    -3.84200000     9.63300000
H       -4.31000000    -3.00900000     9.23500000
H       -5.33100000    -4.12200000     9.13200000
O       12.74600000    -7.22500000   -12.71200000
H       12.78500000    -7.51900000   -11.80200000
H       13.45500000    -7.70000000   -13.14700000
O       -3.25300000    -8.40100000    10.85600000
H       -3.86300000    -7.69700000    11.07400000
H       -3.79500000    -9.06500000    10.43000000
O        5.98900000    -5.11000000    14.48400000
H        6.87500000    -5.47000000    14.43100000
H        5.41500000    -5.86500000    14.35900000
O        1.75200000    -8.69600000     3.35200000
H        2.65500000    -8.87700000     3.08900000
H        1.70100000    -7.74100000     3.39500000
O       -0.18900000     4.91000000     9.86600000
H       -0.49700000     4.34100000    10.57100000
H        0.76500000     4.89300000     9.94300000
O       -3.77500000     3.34100000     3.47500000
H       -4.48500000     3.29000000     2.83500000
H       -3.12500000     3.91300000     3.06700000
O        5.49200000    -4.40400000    -1.44200000
H        4.71700000    -3.98200000    -1.07100000
H        5.61500000    -3.97800000    -2.29000000
O      -13.04200000    -1.62400000    10.60900000
H      -12.55000000    -1.77200000     9.80200000
H      -13.35300000    -2.49300000    10.86400000
O       -1.40500000    14.74200000    11.70100000
H       -0.71200000    15.27500000    11.31000000
H       -1.74700000    15.28000000    12.41500000
O      -10.41100000     9.12300000   -14.91800000
H       -9.99000000     9.37200000   -14.09500000
H       -9.70100000     8.76800000   -15.45200000
O      -13.05700000     3.77100000   -13.56700000
H      -12.92800000     4.71900000   -13.53800000
H      -12.21200000     3.42200000   -13.84800000
O      -10.42100000    -6.32200000     3.25200000
H       -9.82200000    -6.61800000     3.93800000
H      -10.89600000    -7.11100000     2.99200000
O      -10.17400000    -8.23300000     8.17600000
H      -10.22100000    -9.18900000     8.16100000
H      -10.82700000    -7.95000000     7.53700000
O      -12.53000000    -1.71500000   -11.72500000
H      -13.36300000    -2.08300000   -11.42800000
H      -12.62300000    -0.77200000   -11.58900000
O       -4.00500000   -12.20900000    10.65500000
H       -4.19000000   -12.15500000    11.59200000
H       -4.41000000   -11.42500000    10.28400000
O      -12.61200000    -4.89400000    12.14700000
H      -12.37600000    -5.78000000    11.87300000
H      -11.98700000    -4.68200000    12.84000000
O        4.03100000   -10.66000000     0.02700000
H        4.52300000    -9.99600000    -0.45600000
H        3.17900000   -10.69100000    -0.40800000
O       -6.93500000    15.19200000     7.50400000
H       -6.15000000    15.73700000     7.55400000
H       -6.91700000    14.82500000     6.62000000
O       -5.79500000     2.42500000    11.23600000
H       -5.47200000     1.88700000    10.51200000
H       -5.55000000     3.31900000    10.99800000
O      -10.38900000    -7.93600000    12.96500000
H       -9.81200000    -7.71300000    12.23500000
H       -9.85500000    -7.79000000    13.74600000
O       -7.06200000    -4.39700000     8.40300000
H       -7.72000000    -3.80400000     8.76600000
H       -7.54800000    -5.19300000     8.18700000
O      -13.44900000    -5.30900000    -2.34500000
H      -13.96000000    -4.68800000    -1.82700000
H      -14.10100000    -5.89000000    -2.73500000
O       -5.96500000   -12.73400000   -11.58800000
H       -6.51500000   -12.66300000   -12.36900000
H       -5.11100000   -12.40300000   -11.86600000
O       -0.52800000    11.05300000    11.28600000
H       -1.26300000    10.50000000    11.02200000
H        0.00500000    11.13700000    10.49500000
O       -8.93000000    -7.35700000    10.54100000
H       -9.41100000    -7.47100000     9.72200000
H       -8.81100000    -6.41100000    10.62000000
O       -1.77400000    -3.67700000    10.00000000
H       -2.61200000    -3.81100000     9.55800000
H       -1.47500000    -4.55900000    10.22000000
O        8.68300000    -8.42700000     2.14600000
H        7.74400000    -8.46700000     1.96400000
H        9.09700000    -8.75600000     1.34800000
O      -10.92800000    -3.02800000     0.11800000
H      -11.69200000    -3.44800000     0.51200000
H      -10.17800000    -3.47400000     0.51300000
O        0.22000000     3.34900000     3.65000000
H        0.38500000     4.03700000     3.00400000
H        0.58200000     2.55700000     3.25400000
O       -4.66200000   -13.08300000     7.36400000
H       -4.28700000   -13.20200000     8.23700000
H       -3.91200000   -12.87700000     6.80600000
O      -11.71100000   -12.46200000     7.59200000
H      -11.04000000   -11.91000000     7.99500000
H      -12.33100000   -11.84300000     7.20800000
O       -8.28300000     2.04700000    -7.93600000
H       -8.47000000     1.11700000    -7.81100000
H       -8.25200000     2.40800000    -7.05000000
O       -6.53900000     0.34800000    12.99100000
H       -6.11600000     1.11300000    12.60000000
H       -7.02500000     0.69800000    13.73800000
O      -14.31000000   -13.87100000    13.93600000
H      -13.51000000   -13.42500000    14.21400000
H      -14.97700000   -13.18400000    13.92800000
O       -3.35400000    -2.28300000     3.95800000
H       -3.85600000    -3.07300000     3.76100000
H       -3.43300000    -1.74600000     3.16900000
O      -13.04600000    13.45900000    13.57000000
H      -12.81900000    13.26500000    12.66000000
H      -13.18000000    14.40600000    13.58700000
O       -7.26200000     4.78200000    13.87300000
H       -7.02500000     4.26800000    14.64500000
H       -7.85700000     5.45400000    14.20500000
O       -5.27300000    -9.98700000     9.70600000
H       -6.17200000    -9.92400000    10.02900000
H       -5.36300000   -10.03300000     8.75400000
O       -7.92600000    -3.08900000    14.51700000
H       -6.97800000    -2.95900000    14.52500000
H       -8.09500000    -3.67500000    15.25500000
O       -8.67400000    -6.25000000     7.53900000
H       -9.08100000    -7.10800000     7.65700000
H       -9.18700000    -5.83400000     6.84600000
O      -10.12600000   -12.01100000    14.65200000
H      -10.68200000   -12.08300000    15.42700000
H      -10.61000000   -12.46900000    13.96500000
O       12.84900000   -14.59200000    12.36800000
H       13.21900000   -13.84800000    12.84300000
H       13.37400000   -14.65300000    11.57000000
O        2.74200000   -10.96600000     7.35000000
H        2.77400000   -11.88000000     7.63400000
H        3.25200000   -10.94900000     6.54000000
O       -3.05100000    -0.09500000   -11.75900000
H       -2.65500000     0.18000000   -12.58500000
H       -3.48300000    -0.92400000   -11.96400000
O       -1.42700000   -12.85300000     9.32800000
H       -0.78600000   -12.94600000    10.03300000
H       -2.19400000   -12.46700000     9.75100000
O       -6.86500000    -3.66500000     5.80100000
H       -7.78900000    -3.50800000     5.60700000
H       -6.85700000    -3.95300000     6.71400000
O       -7.89600000     2.65600000     8.59000000
H       -7.01600000     2.57100000     8.95600000
H       -8.11000000     3.58400000     8.69100000
O       -8.87400000    -6.49100000    -9.61400000
H       -9.44300000    -5.73900000    -9.44900000
H       -8.11600000    -6.34800000    -9.04800000
O        4.98000000    -4.85700000   -12.98600000
H        5.44800000    -5.48000000   -12.43100000
H        5.46000000    -4.86600000   -13.81500000
O      -11.19000000     4.35600000    -8.50900000
H      -10.79300000     5.20100000    -8.29600000
H      -10.67600000     4.02900000    -9.24700000
O      -15.20700000    14.63600000   -13.78300000
H      -14.90700000    15.14800000   -14.53400000
H      -15.04700000    13.72600000   -14.03300000
O       -9.17600000    -9.92700000     0.47100000
H       -9.65800000    -9.37500000    -0.14400000
H       -9.80300000   -10.11200000     1.17000000
O       -0.83400000    -6.21800000    10.33300000
H       -1.54800000    -6.85100000    10.40400000
H       -0.36300000    -6.29300000    11.16300000
O        0.06700000     2.33800000    -8.08700000
H       -0.63800000     2.04400000    -8.66500000
H       -0.37500000     2.58000000    -7.27300000
O      -14.46800000    -4.83600000    10.20600000
H      -13.75900000    -4.96000000    10.83700000
H      -14.03200000    -4.52900000     9.41200000
O       -0.64200000   -14.33600000    -1.77100000
H        0.02300000   -14.98600000    -1.54200000
H       -0.49700000   -13.61700000    -1.15700000
O        7.94200000     4.88300000     6.41000000
H        8.20000000     3.99900000     6.67200000
H        7.08700000     5.01500000     6.82100000
O       -1.68900000     3.69800000    -4.26000000
H       -1.71400000     3.64600000    -3.30500000
H       -1.79800000     2.79200000    -4.55200000
O      -10.97000000   -10.49100000    11.87300000
H      -11.89800000   -10.35600000    11.68200000
H      -10.73600000    -9.76700000    12.45300000
O      -11.51700000    -1.73600000     8.34500000
H      -11.55800000    -0.79000000     8.48700000
H      -11.20100000    -1.82900000     7.44600000
O        5.45700000   -12.21800000     9.30600000
H        5.11000000   -12.38100000     8.42900000
H        5.35800000   -13.05300000     9.76300000
O       -1.45200000     8.64600000    -4.83400000
H       -1.26400000     9.11100000    -5.65000000
H       -1.32900000     7.72200000    -5.05100000
O        6.20800000     3.31400000     8.80800000
H        6.09800000     2.52900000     9.34500000
H        6.63100000     3.94500000     9.38900000
O       -6.36900000     2.76700000   -14.35600000
H       -5.60400000     2.39200000   -14.79200000
H       -6.00700000     3.26400000   -13.62200000
O       -6.44200000    13.33000000     9.97200000
H       -6.62800000    13.08000000     9.06700000
H       -5.69500000    13.92500000     9.90800000
O       -8.87400000    -2.68200000     9.39400000
H       -9.71500000    -2.36100000     9.06600000
H       -8.52500000    -1.95600000     9.91000000
O      -15.91800000    -5.68900000     5.37100000
H      -16.20200000    -6.49200000     5.80700000
H      -16.10400000    -4.99400000     6.00200000
O       -4.72000000    -4.56700000     3.75500000
H       -5.33400000    -5.22500000     3.43000000
H       -4.87200000    -4.54200000     4.70000000
O       -1.69800000     6.43800000   -13.94900000
H       -2.56800000     6.72300000   -14.22800000
H       -1.23600000     6.24400000   -14.76400000
O       -5.30800000    -4.53000000     0.35500000
H       -4.37500000    -4.33700000     0.26100000
H       -5.33800000    -5.30800000     0.91100000
O      -12.52800000    -7.30600000    11.04400000
H      -11.72800000    -7.82500000    11.12800000
H      -12.67400000    -7.24200000    10.10000000
O        3.74300000     1.25200000    -1.91300000
H        4.50200000     1.20400000    -1.33200000
H        3.20900000     0.49400000    -1.67400000
O      -15.09400000    -0.31700000    14.63900000
H      -14.54600000     0.44700000    14.45700000
H      -15.13600000    -0.36000000    15.59400000
O       -4.73900000    -1.30300000    13.88400000
H       -5.37900000    -0.75600000    13.42900000
H       -4.18100000    -1.65000000    13.18800000
O       12.34800000   -13.18000000     2.77200000
H       12.29100000   -14.10400000     3.01600000
H       12.29400000   -12.70900000     3.60400000
O        0.87800000     2.11700000     7.63000000
H        0.72200000     3.04000000     7.83100000
H        1.77800000     2.09100000     7.30600000
O       10.84500000    -2.58900000   -13.13900000
H       10.83600000    -2.01400000   -12.37300000
H       11.54900000    -3.21300000   -12.96400000
O       -0.25100000   -11.18600000   -13.50700000
H        0.30800000   -11.96200000   -13.54500000
H       -0.59600000   -11.09500000   -14.39500000
O      -15.21000000   -11.07900000     8.96000000
H      -15.52900000   -11.95600000     8.74900000
H      -14.44700000   -10.95800000     8.39400000
O       -2.19200000     5.22300000     2.25000000
H       -2.26500000     6.02800000     1.73700000
H       -1.38000000     4.81700000     1.94500000
O       -5.56600000    -7.31900000     0.92700000
H       -5.54100000    -8.17300000     1.35900000
H       -5.94400000    -7.49700000     0.06600000
O       -0.17400000    13.14800000     5.93000000
H       -0.62400000    12.45000000     5.45400000
H       -0.78700000    13.40200000     6.61900000
O       -0.52700000   -10.30800000    11.11500000
H       -1.22200000    -9.65000000    11.12600000
H       -0.29400000   -10.39600000    10.19100000
O       -6.70700000    -6.41300000    13.25700000
H       -7.28300000    -6.32000000    12.49800000
H       -5.89800000    -5.97100000    13.00000000
O       -8.13800000    -7.40000000     4.73600000
H       -8.16100000    -8.35600000     4.70900000
H       -7.29800000    -7.19100000     5.14600000
O        0.81400000    15.44700000    -9.32200000
H        0.66500000    14.71200000    -8.72600000
H        0.53100000    15.12300000   -10.17700000
O       -6.25500000    12.73200000    -9.59900000
H       -7.15200000    12.95000000    -9.85300000
H       -5.71700000    13.04600000   -10.32600000
O        2.34400000    14.89900000    13.32900000
H        1.85800000    14.08100000    13.22600000
H        2.64500000    14.88700000    14.23800000
O      -14.96300000    -8.44300000    -5.35900000
H      -15.43600000    -8.17600000    -6.14700000
H      -14.16400000    -7.91600000    -5.36800000
O       -4.93300000     8.41000000     5.78300000
H       -4.90000000     7.46200000     5.90600000
H       -5.56400000     8.53800000     5.07400000
O       -4.99800000    11.21000000    -7.67500000
H       -5.19100000    11.69200000    -6.87200000
H       -5.32500000    11.77300000    -8.37700000
O      -13.41000000     4.28600000    -4.02400000
H      -12.90100000     4.83300000    -3.42600000
H      -13.03000000     4.45600000    -4.88600000
O       -2.11800000     1.03500000    -9.20900000
H       -1.96700000     0.09700000    -9.32300000
H       -2.70200000     1.27300000    -9.92900000
O      -13.91700000    -9.82000000    -2.91000000
H      -14.39300000    -9.47900000    -3.66700000
H      -14.24100000    -9.30600000    -2.17100000
O       -6.36300000    13.57300000    -6.38400000
H       -6.66300000    13.56500000    -7.29200000
H       -6.93800000    14.20100000    -5.94700000
O       -4.35700000     5.89100000     6.27100000
H       -4.46400000     5.01800000     5.89400000
H       -3.74300000     5.76600000     6.99600000
O       11.96800000    11.39300000    -2.79500000
H       12.16400000    12.23400000    -2.38200000
H       11.01400000    11.38100000    -2.87500000
O       -2.22500000    -7.75800000   -12.53000000
H       -3.01700000    -7.29500000   -12.80600000
H       -2.53400000    -8.40300000   -11.89400000
O      -11.08500000    15.02300000     3.24400000
H      -10.95100000    15.17200000     4.18000000
H      -11.47000000    15.83900000     2.92400000
O       -5.57900000     5.37000000    -8.89000000
H       -6.22900000     5.01700000    -9.49700000
H       -6.09000000     5.88100000    -8.26200000
O       -2.99400000    -9.37100000   -10.33600000
H       -2.40200000    -9.38000000    -9.58400000
H       -3.68700000    -9.98900000   -10.10300000
O      -12.75800000    10.10800000     4.36800000
H      -11.87900000     9.73200000     4.32300000
H      -12.66800000    10.97600000     3.97500000
O      -16.04700000     6.98100000   -10.30100000
H      -15.15400000     6.65800000   -10.41700000
H      -16.59500000     6.34000000   -10.75500000
O       -0.32400000    11.38500000   -10.25400000
H       -0.44400000    10.60300000   -10.79400000
H       -1.16500000    11.50200000    -9.81100000
O       -1.86700000     5.83200000    -1.80900000
H       -1.62400000     6.71900000    -2.07500000
H       -1.04000000     5.42200000    -1.55500000
O        1.52300000     6.97500000     6.45000000
H        1.02800000     7.70200000     6.82800000
H        1.12000000     6.19100000     6.82300000
O       -3.24200000    10.47600000     6.90300000
H       -3.59700000     9.75700000     6.38000000
H       -2.75800000    11.01200000     6.27500000
O      -11.40700000     7.99300000     1.58500000
H      -10.80800000     8.73900000     1.61600000
H      -10.87400000     7.24700000     1.86100000
O      -10.28700000     6.90000000    -8.23500000
H       -9.63100000     7.28300000    -7.65300000
H      -11.10300000     6.93800000    -7.73600000
O        1.40000000    13.17500000    -7.26000000
H        0.55400000    12.79200000    -7.03000000
H        1.78700000    12.55200000    -7.87500000
O      -13.77500000     4.29000000    -9.47600000
H      -14.42200000     4.12900000    -8.78800000
H      -12.93000000     4.15500000    -9.04700000
O       -1.77900000    14.28500000    -7.62800000
H       -1.32900000    13.65000000    -7.07200000
H       -2.11800000    13.76700000    -8.35800000
O        8.23400000    10.21900000    -0.89400000
H        8.81200000     9.48600000    -1.10200000
H        8.46400000    10.89500000    -1.53200000
O       -9.58900000     4.40700000   -12.62000000
H      -10.18100000     5.02200000   -13.05300000
H      -10.08800000     3.59200000   -12.56500000
O      -10.23300000    12.89100000    14.93900000
H      -10.82900000    13.05400000    14.20700000
H      -10.72300000    12.31200000    15.52300000
O        0.35200000     4.57000000     6.24300000
H        0.41900000     3.85900000     5.60600000
H       -0.39100000     5.09300000     5.94200000
O       -8.82000000     8.59200000   -11.60800000
H       -8.51200000     9.35500000   -12.09600000
H       -8.43900000     8.69500000   -10.73600000
O       -5.70900000     8.98100000     2.11800000
H       -6.45700000     8.71000000     2.65000000
H       -5.57100000     8.25400000     1.51000000
O       -0.64000000    10.60400000    -0.98600000
H        0.16100000    10.71400000    -1.49800000
H       -1.00400000     9.77100000    -1.28600000
O       -6.91800000    -9.05900000    -9.25200000
H       -7.23400000    -8.82600000   -10.12500000
H       -6.66600000    -9.97900000    -9.32500000
O      -11.81200000     5.65000000    -2.43100000
H      -12.24100000     6.45900000    -2.15400000
H      -11.05100000     5.57300000    -1.85500000
O      -12.83800000     0.98700000   -11.79000000
H      -12.44900000     1.64500000   -12.36600000
H      -12.28500000     0.99500000   -11.00900000
O      -11.90600000     3.28400000    -6.07100000
H      -11.85400000     3.66500000    -6.94700000
H      -12.49300000     2.53500000    -6.16900000
O       -4.92100000    14.86600000    -0.90100000
H       -4.12500000    14.52500000    -0.49300000
H       -5.25600000    15.50900000    -0.27500000
O       -4.81400000    14.92700000   -14.24600000
H       -4.94100000    14.60400000   -15.13800000
H       -5.35900000    15.71300000   -14.19600000
O       -5.92100000    -0.16100000     2.93300000
H       -6.37900000    -0.99800000     2.85300000
H       -5.14800000    -0.25600000     2.37700000
O       -9.38000000    10.37000000    -7.97600000
H       -8.77100000     9.88700000    -8.53400000
H      -10.03300000    10.72200000    -8.58100000
O      -15.30400000     3.28100000   -11.93000000
H      -14.71000000     3.33600000   -11.18100000
H      -14.77900000     3.57200000   -12.67500000
O       -9.17200000    11.55900000    -1.98300000
H       -9.32400000    12.49500000    -1.85500000
H       -8.22400000    11.45700000    -1.89900000
O       -6.11600000    11.00800000    -3.48500000
H       -6.02400000    11.70700000    -2.83700000
H       -6.55400000    11.42600000    -4.22700000
O       -3.22900000   -12.44500000    -5.39200000
H       -2.45100000   -12.94100000    -5.13600000
H       -3.44600000   -11.92300000    -4.62000000
O       -5.17900000     7.77500000   -13.05500000
H       -5.21400000     6.89100000   -13.42100000
H       -5.65100000     8.31600000   -13.68800000
O      -15.47000000     0.24600000   -12.56700000
H      -16.09900000     0.95700000   -12.44800000
H      -14.61900000     0.64600000   -12.39000000
O       -0.23200000     9.38600000    -7.06100000
H       -0.17100000     9.27600000    -8.01000000
H        0.67200000     9.51300000    -6.77500000
O       -8.40700000     1.14000000     3.22700000
H       -8.70400000     1.10900000     4.13600000
H       -7.63000000     0.58100000     3.20800000
O      -11.72000000     8.06500000    -4.09500000
H      -12.25900000     8.51500000    -3.44400000
H      -11.02900000     8.69200000    -4.30900000
O       -4.45500000     8.76200000    -3.77500000
H       -4.17100000     8.75600000    -4.68900000
H       -5.13500000     9.43500000    -3.73900000
O      -12.77700000     7.85200000    -0.82600000
H      -12.44000000     8.60800000    -1.30700000
H      -12.26700000     7.83500000    -0.01600000
O        4.00100000   -11.46500000   -13.58200000
H        4.34800000   -12.14900000   -14.15500000
H        3.14000000   -11.78900000   -13.31700000
O       12.09200000   -12.07500000     5.15100000
H       11.29000000   -12.28800000     5.62900000
H       12.34400000   -11.21100000     5.47600000
O        3.13600000    14.40500000    -5.69300000
H        2.59700000    14.79300000    -5.00400000
H        2.51300000    14.16500000    -6.37900000
O      -15.09300000   -14.50200000    10.73700000
H      -14.30800000   -14.43100000    10.19400000
H      -14.84300000   -14.10800000    11.57300000
O      -15.30300000     2.19000000     0.91700000
H      -15.90700000     1.75600000     1.52000000
H      -15.77800000     2.96500000     0.61800000
O       -9.34600000     9.68100000    -5.01500000
H       -9.24600000    10.58900000    -4.73000000
H       -9.21600000     9.71100000    -5.96300000
O       -5.65200000   -13.05300000     0.72200000
H       -5.48600000   -13.02500000     1.66500000
H       -5.37700000   -12.19300000     0.40500000
O       -4.77600000     4.72300000    10.34000000
H       -4.04500000     4.83400000     9.73200000
H       -4.60500000     5.35500000    11.03800000
O      -12.75400000     4.87600000     3.20100000
H      -13.64300000     5.06900000     3.50000000
H      -12.19000000     5.18000000     3.91100000
O       10.25300000    -5.97600000    -0.29300000
H        9.84700000    -5.10900000    -0.27300000
H        9.51500000    -6.58600000    -0.30000000
O      -12.97900000     7.44900000    -6.82000000
H      -12.66600000     8.20600000    -6.32400000
H      -13.93300000     7.52600000    -6.79900000
O       -0.64800000     8.75700000     5.00900000
H       -0.07900000     8.61500000     4.25300000
H       -1.08400000     7.91600000     5.14300000
O       -9.02300000     6.95300000    -5.72300000
H       -8.82200000     7.71500000    -5.17900000
H       -9.53600000     6.38000000    -5.15300000
O       -3.60100000    11.52300000    14.23400000
H       -3.92600000    11.47900000    15.13300000
H       -4.38400000    11.66500000    13.70200000
O       -4.01900000    14.39000000    -5.29600000
H       -4.85700000    14.04200000    -5.60200000
H       -3.56400000    14.65600000    -6.09500000
O       -4.81500000    11.59800000     1.52600000
H       -4.19100000    11.52800000     0.80400000
H       -4.81500000    10.72900000     1.92900000
O       -5.21900000     3.97500000   -12.23600000
H       -5.41300000     4.90700000   -12.13100000
H       -4.52300000     3.80200000   -11.60100000
O       -2.44100000   -14.05400000   -13.15300000
H       -3.22200000   -14.27700000   -13.65900000
H       -2.43600000   -13.09700000   -13.12700000
O      -12.91100000   -13.91400000   -10.42600000
H      -11.95600000   -13.84700000   -10.43200000
H      -13.20700000   -13.08900000   -10.04200000
O       -6.66400000     6.95800000    -7.02600000
H       -7.26800000     6.98500000    -6.28400000
H       -5.87400000     7.39600000    -6.70800000
O       12.77000000     9.41600000    -4.53800000
H       12.04800000     8.79300000    -4.62800000
H       12.46100000    10.05000000    -3.89100000
O       -6.27900000     1.37900000     6.79400000
H       -7.18900000     1.65400000     6.90200000
H       -6.33600000     0.47000000     6.50000000
O       -8.09100000     6.82500000    -0.34000000
H       -7.19300000     6.83500000    -0.00900000
H       -8.10700000     7.50500000    -1.01300000
O        9.37900000    10.67400000    -6.41700000
H        8.49200000    10.92200000    -6.67600000
H        9.81600000    10.45300000    -7.24000000
O        8.39100000     6.33100000     4.02400000
H        9.23500000     6.59500000     3.65700000
H        8.61700000     5.73900000     4.74200000
O       -7.84400000     5.22800000    10.26300000
H       -8.03700000     4.68800000    11.03000000
H       -6.88900000     5.22700000    10.20300000
O       -3.13400000   -13.19200000    -2.46500000
H       -2.51100000   -13.89200000    -2.26800000
H       -3.97800000   -13.53300000    -2.17000000
O       13.75800000    12.39900000    -6.05100000
H       13.15200000    11.70100000    -6.30400000
H       14.34700000    11.98700000    -5.41900000
O       -2.81100000    11.52400000    -9.43600000
H       -3.00700000    11.35800000    -8.51400000
H       -3.57200000    11.18700000    -9.90800000
O       -2.11700000     8.69900000    -2.24900000
H       -3.02400000     8.62100000    -2.54700000
H       -1.61000000     8.81500000    -3.05200000
O       -8.11900000     8.70400000     9.60000000
H       -7.45400000     8.20400000     9.12700000
H       -8.13000000     9.55800000     9.16600000
O       12.73400000    14.46600000     4.54800000
H       13.26500000    14.30100000     5.32700000
H       11.83200000    14.34200000     4.84200000
O       -8.88500000   -12.31200000     4.79700000
H       -8.33300000   -13.07800000     4.64000000
H       -9.63600000   -12.65300000     5.28400000
O        0.58100000    -2.21400000   -13.80300000
H        0.05900000    -1.45900000   -14.07600000
H        0.14700000    -2.53200000   -13.01100000
O       -4.64100000     1.36700000     8.94400000
H       -3.99700000     1.89200000     8.46800000
H       -5.29900000     1.14100000     8.28700000
O       -1.58400000    -1.64500000    -9.12800000
H       -1.71200000    -1.82300000    -8.19600000
H       -2.46700000    -1.65600000    -9.49800000
O       -5.18900000     5.25300000    -5.06300000
H       -5.98100000     5.31000000    -4.52900000
H       -4.47500000     5.43600000    -4.45200000
O        2.94100000     0.20100000    -9.39400000
H        3.09400000     1.04400000    -8.96800000
H        2.73700000    -0.39700000    -8.67500000
O       -9.31600000    13.97600000    -0.76700000
H       -8.72500000    14.70900000    -0.59300000
H      -10.12100000    14.20100000    -0.30100000
O       -6.31500000     8.10400000    11.68000000
H       -6.80200000     8.14200000    10.85600000
H       -6.35200000     8.99700000    12.02200000
O       11.26800000   -14.18700000    -2.16700000
H       11.42500000   -14.82400000    -1.47000000
H       11.85200000   -13.45700000    -1.96100000
O       -3.97200000     3.85200000    -7.26300000
H       -4.34000000     4.08000000    -6.40900000
H       -4.52000000     4.32100000    -7.89300000
O        8.57800000     5.07800000    -2.51500000
H        8.82000000     4.36900000    -1.92000000
H        8.10600000     4.64400000    -3.22600000
O      -14.63100000    15.21400000     0.89300000
H      -14.65200000    16.16500000     1.00400000
H      -13.80000000    15.04300000     0.45000000
O       -9.25200000     6.04500000     2.89000000
H       -8.63400000     5.34800000     2.67100000
H       -9.81000000     5.66700000     3.57000000
O        9.13500000     0.36900000   -13.64700000
H        9.23300000    -0.41100000   -14.19400000
H        8.35200000     0.80400000   -13.98800000
O        2.78300000    13.11300000   -11.65100000
H        3.64200000    12.83100000   -11.33800000
H        2.16800000    12.78000000   -10.99800000
O       -7.72700000   -10.31900000   -13.14000000
H       -7.63600000    -9.67600000   -12.43700000
H       -8.54800000   -10.77300000   -12.94600000
O       -4.88300000    14.26600000   -11.53100000
H       -4.87300000    15.09700000   -11.05500000
H       -4.48000000    14.46900000   -12.37600000
O       -9.95200000     9.00900000     5.10000000
H       -9.75800000     8.79200000     4.18800000
H       -9.12500000     9.34500000     5.44800000
O       -5.87400000    13.93700000    -3.03800000
H       -5.07700000    13.79900000    -3.55000000
H       -5.56200000    14.10700000    -2.14900000
O        1.30300000     7.86700000    12.42600000
H        1.55400000     8.37600000    13.19700000
H        2.03600000     7.97400000    11.81900000
O      -14.40400000    13.95300000    -7.41800000
H      -13.73500000    13.44400000    -7.87400000
H      -15.18900000    13.40700000    -7.45600000
O        9.83900000     8.26400000    -1.79600000
H        9.64300000     8.24700000    -2.73300000
H        9.99700000     7.34900000    -1.56600000
O        3.22500000    12.18000000    -0.96800000
H        3.52600000    12.37800000    -0.08100000
H        3.27700000    11.22600000    -1.03200000
O      -12.73100000    10.21200000    -5.93400000
H      -12.32900000    11.04800000    -5.69900000
H      -13.56700000    10.45200000    -6.33500000
O      -14.67200000    12.25800000   -14.60400000
H      -13.89600000    12.57100000   -15.06900000
H      -14.85000000    11.39900000   -14.98600000
O       13.52400000    13.37100000     0.32300000
H       14.02000000    12.63700000    -0.04100000
H       14.18000000    14.05000000     0.48100000
O        6.28100000     0.13300000    -6.31200000
H        5.65500000     0.16900000    -5.58900000
H        7.05300000     0.59500000    -5.98400000
O      -14.57300000     4.56300000    -1.39400000
H      -15.26300000     4.94800000    -1.93400000
H      -14.08000000     4.00600000    -1.99700000
O      -12.14000000    12.37000000     3.14600000
H      -12.32200000    12.32300000     2.20800000
H      -11.63200000    13.17500000     3.25100000
O       -2.80500000     7.55500000     0.61200000
H       -3.75700000     7.46200000     0.63700000
H       -2.56500000     7.32900000    -0.28600000
O       -3.12900000     6.86900000    -8.63600000
H       -2.59900000     7.30900000    -9.30100000
H       -3.68200000     6.26400000    -9.13100000
O      -12.64400000    -8.31600000   -13.09500000
H      -12.08200000    -7.64900000   -13.49000000
H      -12.10900000    -8.69800000   -12.39900000
O        0.92700000     9.10100000   -14.90100000
H        1.38200000     9.87100000   -14.56000000
H        0.05600000     9.42100000   -15.13700000
O       -8.89000000     7.97800000    13.11300000
H       -9.47700000     7.86800000    12.36500000
H       -8.01100000     7.90300000    12.74000000
O        2.17400000    -1.89900000    -7.56400000
H        1.62200000    -2.52700000    -8.03000000
H        1.57400000    -1.44700000    -6.97100000
O      -15.94800000   -10.93800000    -9.16300000
H      -16.09300000   -11.85200000    -9.40500000
H      -16.01200000   -10.93000000    -8.20800000
O       -0.74500000     6.35600000    13.13400000
H       -1.37700000     7.03200000    12.89200000
H        0.09500000     6.68700000    12.81400000
O        3.81900000   -14.20600000    11.31500000
H        3.22200000   -14.44400000    12.02400000
H        4.21100000   -13.38000000    11.59800000
O       10.29100000     8.65100000     7.14700000
H        9.82200000     9.34400000     6.68300000
H       11.15700000     8.63300000     6.74000000
O       -7.38900000    -9.56100000    11.21900000
H       -7.51900000    -9.66200000    12.16200000
H       -8.11800000    -9.01000000    10.93300000
O      -11.03000000   -13.49700000    12.61700000
H      -10.84800000   -12.68800000    12.14000000
H      -11.16100000   -14.15400000    11.93300000
O       -3.46900000     7.55200000     9.52700000
H       -3.37200000     7.27300000    10.43800000
H       -2.94500000     6.92600000     9.02700000
O      -11.33700000    11.93300000   -12.91900000
H      -11.25400000    11.21200000   -12.29500000
H      -12.15700000    12.36400000   -12.68100000
O       -6.80900000    11.96600000    -0.29700000
H       -6.35400000    11.76000000     0.51900000
H       -6.97600000    12.90800000    -0.24800000
O        7.28700000    14.85700000     1.97100000
H        7.22300000    13.90200000     1.98600000
H        6.91000000    15.10900000     1.12900000
O        0.17100000     8.95200000     7.45800000
H       -0.18000000     9.05600000     6.57400000
H       -0.58900000     9.05900000     8.03200000
O       -9.09000000     1.49800000     5.73400000
H       -9.66400000     1.24000000     6.45600000
H       -9.09100000     2.45500000     5.75800000
O        0.32600000    13.43400000     1.04000000
H        0.70800000    13.95600000     1.74400000
H        0.89700000    13.59100000     0.28700000
O       -1.94300000     9.66200000     9.08400000
H       -2.45400000     8.88100000     9.29400000
H       -2.50300000    10.16300000     8.49100000
O       -2.54700000     2.50000000     7.34600000
H       -1.98400000     1.89000000     7.82300000
H       -2.65600000     2.10100000     6.48300000
O       -2.60200000     4.98300000     8.52400000
H       -2.48300000     4.17400000     8.02600000
H       -1.88900000     4.98000000     9.16200000
O      -10.56700000     6.36700000   -14.36600000
H      -11.47200000     6.40600000   -14.67600000
H      -10.21600000     7.24000000   -14.54000000
O      -12.16500000     9.23600000    12.90400000
H      -12.31000000     8.30000000    12.76400000
H      -11.47800000     9.27600000    13.56900000
O        7.25600000    10.87100000    11.26900000
H        7.78900000    11.28800000    10.59100000
H        6.55900000    11.50200000    11.44700000
O        5.01500000    12.70000000    11.27800000
H        4.66700000    12.84200000    10.39800000
H        5.26500000    13.57300000    11.58100000
O       -1.38700000    11.28700000     4.64300000
H       -1.25700000    11.29700000     3.69400000
H       -1.44800000    10.35900000     4.86700000
O       -4.42700000    14.99100000    10.12300000
H       -4.56500000    15.77900000    10.64900000
H       -3.49100000    14.80800000    10.20600000
O      -10.45800000    11.03500000     7.06700000
H       -9.95000000    11.43000000     6.35800000
H      -10.81800000    10.23400000     6.68700000
O       -7.62500000   -11.94300000     9.92900000
H       -7.99300000   -12.68500000    10.40800000
H       -7.61600000   -11.22800000    10.56500000
O      -12.51500000     6.47600000    12.93100000
H      -13.38900000     6.36300000    12.55800000
H      -11.92100000     6.16400000    12.25000000
O        8.43600000     2.50400000     7.38900000
H        9.03600000     1.81000000     7.66200000
H        7.60800000     2.29000000     7.81800000
O       -4.38700000     5.58200000    14.77300000
H       -5.27500000     5.40200000    14.46400000
H       -4.07600000     4.74400000    15.11300000
O       -5.44800000     6.57800000     0.74800000
H       -5.03400000     5.82900000     1.17600000
H       -5.19600000     6.49900000    -0.17200000
O       -8.28400000     3.11000000    11.96600000
H       -8.13400000     3.59600000    12.77700000
H       -7.41400000     2.81600000    11.69700000
O       -1.39100000    13.10400000    14.45400000
H       -2.28900000    12.86400000    14.68100000
H       -1.48200000    13.69600000    13.70700000
O       -1.48300000    14.30700000     8.51000000
H       -0.93600000    13.86600000     9.16100000
H       -1.43600000    15.23300000     8.74500000
O       -8.07300000    11.11600000    14.10900000
H       -8.73800000    11.50100000    14.68000000
H       -8.51600000    10.99900000    13.26900000
O        1.15100000    11.34300000     9.23000000
H        1.90700000    11.26000000     8.64900000
H        0.55900000    10.64300000     8.95500000
O        0.29800000    10.53100000     1.52300000
H       -0.10400000    10.48200000     0.65600000
H        0.60900000    11.43300000     1.59300000
O      -16.18700000    11.19500000     7.95500000
H      -16.30000000    10.39900000     8.47400000
H      -15.24700000    11.23500000     7.77800000
O       -7.35200000    10.78900000   -12.21600000
H       -6.63200000    10.85900000   -12.84200000
H       -7.79200000    11.63800000   -12.26100000
O       10.68600000   -10.83200000     7.72700000
H       10.68800000   -11.66000000     8.20700000
H       11.27000000   -10.26300000     8.22700000
O      -10.59900000     2.53100000    10.45900000
H      -10.70800000     1.62400000    10.74700000
H       -9.74100000     2.78800000    10.79700000
O       -6.16600000   -10.94300000     6.82400000
H       -6.97000000   -11.03600000     7.33500000
H       -5.57600000   -11.60700000     7.18000000
O       -4.74700000    14.45500000    12.89800000
H       -5.69700000    14.44900000    12.78000000
H       -4.39400000    14.30000000    12.02200000
O       -7.60100000    -1.84000000    -2.22500000
H       -7.32700000    -1.28600000    -2.95500000
H       -6.83600000    -2.38400000    -2.03600000
O      -11.21600000     7.50900000   -10.50700000
H      -10.60100000     7.84000000   -11.16200000
H      -10.69700000     7.43800000    -9.70500000
O      -14.90100000     9.37100000   -12.71800000
H      -14.38100000     8.87500000   -13.35000000
H      -14.46300000     9.22500000   -11.88000000
O      -14.80900000     6.42400000     7.32600000
H      -14.55900000     5.75600000     6.68800000
H      -14.12300000     7.08800000     7.26000000
O       -8.67200000    11.70500000     5.05700000
H       -8.66000000    12.15200000     4.21100000
H       -7.84300000    11.95000000     5.46900000
O       -5.24000000   -12.30600000    13.12900000
H       -6.12000000   -12.50500000    12.80900000
H       -5.36400000   -12.08700000    14.05200000
O       -3.92400000     6.59700000    12.17200000
H       -4.73100000     7.09200000    12.02800000
H       -3.64600000     6.84300000    13.05400000
O        5.56100000    11.36100000     4.24800000
H        5.79900000    10.99200000     3.39800000
H        5.05300000    10.67000000     4.67500000
O      -14.17500000    11.54600000    11.43800000
H      -15.05500000    11.88400000    11.27600000
H      -14.27500000    10.97000000    12.19600000
O       10.41600000     8.91300000   -11.11000000
H       11.18300000     8.79900000   -11.67100000
H       10.06800000     9.77100000   -11.35100000
O       -3.97800000    13.84000000     7.15200000
H       -3.22200000    13.85100000     7.73900000
H       -4.17100000    14.76400000     6.99200000
O       -9.18000000    15.16200000     9.40200000
H       -8.68000000    14.62800000    10.01900000
H       -8.54800000    15.40300000     8.72500000
O       -0.20600000   -12.39300000     6.69900000
H       -0.57000000   -12.54100000     7.57200000
H        0.69800000   -12.70100000     6.76100000
O       -7.19000000     7.17400000     4.85700000
H       -7.85400000     7.09400000     4.17200000
H       -7.09900000     6.28800000     5.20800000
O        3.25600000     4.90200000     5.33700000
H        2.94400000     4.61500000     4.47900000
H        2.45900000     5.09100000     5.83200000
O       -1.55000000   -11.14000000    13.73700000
H       -1.91300000   -12.00900000    13.56100000
H       -1.03100000   -10.93600000    12.95900000
O        1.01700000     1.22800000    10.90700000
H        1.69000000     1.90800000    10.86500000
H        0.20900000     1.70200000    11.10200000
O       -3.02000000   -12.94300000     5.00000000
H       -2.12000000   -12.89300000     5.32300000
H       -3.14500000   -13.86600000     4.78000000
O       -7.83200000   -13.23000000    13.14300000
H       -8.48900000   -13.08900000    13.82500000
H       -7.89600000   -14.16400000    12.93900000
O       -5.94900000     7.51700000     8.16600000
H       -5.78900000     8.00200000     7.35600000
H       -5.08900000     7.45200000     8.58100000
O        2.40200000    -6.46900000   -13.39300000
H        3.11500000    -6.11500000   -12.86200000
H        1.96600000    -5.69700000   -13.75500000
O       -0.95300000     2.76400000    11.39600000
H       -0.84400000     3.19500000    12.24400000
H       -1.54000000     2.03000000    11.57400000
O       -8.80600000    11.91400000    11.29500000
H       -9.73100000    11.78800000    11.08200000
H       -8.36500000    11.92900000    10.44600000
O       -1.63200000     6.41300000   -11.22200000
H       -1.71700000     6.27000000   -12.16500000
H       -1.06200000     5.70500000   -10.92300000
O       -8.94500000    13.05000000     2.68400000
H       -9.25600000    12.77900000     1.82000000
H       -9.54400000    13.74900000     2.94600000
O        9.00900000   -11.48400000    10.40400000
H        8.67500000   -11.80300000     9.56600000
H        9.55200000   -12.20000000    10.73400000
O       -0.28700000    14.22600000   -11.74700000
H       -0.42300000    13.30000000   -11.94700000
H       -0.95500000    14.68300000   -12.25800000
O       -6.99900000   -13.32100000   -13.82500000
H       -7.68300000   -13.99100000   -13.84900000
H       -7.41200000   -12.54300000   -14.19800000
O       -8.05200000    14.67100000    -4.46300000
H       -7.47300000    14.34900000    -3.77300000
H       -8.57400000    15.35200000    -4.03900000
O       -7.66200000    14.09000000    12.79700000
H       -7.98800000    13.50600000    12.11200000
H       -8.06400000    13.76300000    13.60200000
O       -2.96300000     0.73800000    11.35900000
H       -3.08500000    -0.21100000    11.33600000
H       -2.88200000     0.99100000    10.43900000
O      -10.58300000   -14.32100000     5.89700000
H      -10.93300000   -13.69400000     6.53000000
H      -10.72100000   -15.17600000     6.30600000
O       -1.41400000    -6.70100000    -9.64500000
H       -0.72200000    -6.82200000   -10.29500000
H       -1.68500000    -7.59000000    -9.41600000
O       -3.84200000    -8.15100000    -7.12300000
H       -3.02100000    -8.57800000    -7.36600000
H       -4.50800000    -8.59500000    -7.64800000
O       -5.31100000    -8.28600000    14.96600000
H       -4.96400000    -7.60800000    15.54500000
H       -5.93100000    -7.82500000    14.40000000
O        8.87600000     0.62000000    -8.58500000
H        7.98700000     0.84700000    -8.85900000
H        9.40700000     1.37300000    -8.84300000
O        3.29200000    -6.95100000    -2.20800000
H        3.47900000    -6.51800000    -3.04100000
H        2.89500000    -6.26900000    -1.66600000
O       13.85400000    -1.56400000     5.15700000
H       13.15600000    -0.94800000     4.93300000
H       13.46400000    -2.42700000     5.01800000
O        7.35200000    -6.39700000    -0.40000000
H        6.97800000    -6.02900000    -1.20100000
H        6.98600000    -7.28000000    -0.34800000
O       11.39400000   -10.50300000    -4.34700000
H       11.25200000   -10.20300000    -5.24400000
H       11.62900000   -11.42700000    -4.43600000
O        7.75700000    -6.58600000    -3.86700000
H        7.18000000    -6.01200000    -4.37000000
H        8.41800000    -6.87300000    -4.49700000
O        8.05500000   -13.14700000    -4.05800000
H        7.13900000   -13.02800000    -3.80800000
H        8.02500000   -13.75500000    -4.79600000
O        6.74000000     7.34900000    14.90200000
H        7.02500000     6.66400000    15.50800000
H        7.31300000     7.24900000    14.14200000
O      -16.02400000    -7.76900000     2.58300000
H      -15.30600000    -7.16500000     2.77200000
H      -16.36700000    -7.47600000     1.73900000
O        3.30300000    -2.47300000   -13.29200000
H        2.36000000    -2.37800000   -13.42700000
H        3.47600000    -3.40000000   -13.45900000
O        2.53800000    -9.60700000    -2.49200000
H        3.10800000   -10.01400000    -3.14500000
H        2.91200000    -8.73600000    -2.35600000
O       12.13600000     8.82600000    -0.13200000
H       11.47900000     8.95600000    -0.81500000
H       12.95100000     8.66800000    -0.61000000
O       11.67600000   -11.71200000   -11.05100000
H       12.13100000   -12.47900000   -11.39900000
H       10.95600000   -11.56200000   -11.66300000
O       -0.21500000    -7.48000000   -14.34000000
H       -0.88200000    -7.64500000   -13.67300000
H        0.37200000    -6.84000000   -13.93900000
O        3.44900000     2.74300000    11.64600000
H        4.20700000     2.37600000    11.19100000
H        3.45300000     2.31500000    12.50200000
O        9.85500000    -9.06100000    -0.23200000
H       10.07400000    -8.65800000    -1.07200000
H        9.67800000    -9.97700000    -0.44400000
O        9.36600000    -7.52700000    -9.50100000
H        8.80100000    -8.29000000    -9.62200000
H        9.67900000    -7.31800000   -10.38200000
O      -15.62200000     8.39400000    -1.74200000
H      -15.87200000     7.48600000    -1.91200000
H      -14.72500000     8.33900000    -1.41300000
O       -1.28700000    -3.23800000     5.49500000
H       -1.96400000    -2.76500000     5.01100000
H       -0.70700000    -2.55200000     5.82800000
O        2.38100000     9.30700000    -5.81200000
H        2.75300000    10.11900000    -6.15400000
H        2.83000000     8.61400000    -6.29600000
O        0.62300000    -7.49100000   -11.11400000
H        1.11200000    -6.98200000   -11.76100000
H        0.70000000    -8.39700000   -11.41400000
O      -10.46900000   -10.58100000     2.96200000
H       -9.95500000   -11.08200000     3.59400000
H      -10.97500000   -11.24100000     2.48700000
O        9.21200000    -8.88000000     4.73900000
H       10.08700000    -9.21500000     4.54300000
H        8.83700000    -8.67300000     3.88300000
O       -5.57700000    -7.36200000     5.91400000
H       -4.73700000    -7.70400000     5.60600000
H       -5.45600000    -7.24200000     6.85600000
O      -10.65400000    -5.57200000    -1.65400000
H      -11.54000000    -5.65300000    -1.30200000
H      -10.67800000    -4.77400000    -2.18300000
O       13.44800000   -13.79700000   -11.62400000
H       14.11100000   -13.73400000   -12.31100000
H       13.05800000   -14.66300000   -11.74600000
O        3.03600000    -3.17600000    -1.16400000
H        2.64600000    -3.09800000    -2.03500000
H        2.67800000    -2.43700000    -0.67300000
O        7.36600000     2.11700000     2.92000000
H        6.92500000     2.74900000     2.35200000
H        6.75800000     1.98300000     3.64700000
O      -14.84200000    10.88500000    -3.91100000
H      -14.20100000    10.30200000    -4.31800000
H      -15.64400000    10.36500000    -3.86300000
O      -15.52600000   -11.06000000   -12.89400000
H      -15.18100000   -10.55500000   -13.63000000
H      -16.46500000   -11.12700000   -13.06800000
O        9.36800000     8.50400000    -8.65300000
H       10.07900000     8.09500000    -8.15900000
H        9.74100000     8.66800000    -9.51900000
O        3.74400000    -2.33500000   -10.16000000
H        4.20300000    -2.17500000    -9.33600000
H        3.47000000    -1.46700000   -10.45500000
O        1.93200000    -7.49000000    12.21900000
H        1.24100000    -7.93600000    12.70800000
H        2.01500000    -7.99200000    11.40800000
O        9.47600000    -3.36500000     0.47500000
H        9.03400000    -3.90000000     1.13400000
H        8.77400000    -2.85500000     0.07000000
O      -14.38900000     0.06600000    -9.34600000
H      -15.01100000     0.01600000   -10.07300000
H      -14.32300000    -0.83300000    -9.02500000
O       10.65800000   -10.88300000     2.86200000
H       10.38100000   -10.41400000     2.07500000
H        9.96200000   -11.52000000     3.02000000
O        5.54100000     4.99000000   -13.79700000
H        6.31900000     4.58600000   -13.41400000
H        5.30100000     5.68200000   -13.18100000
O        3.81100000    -6.71400000    14.23400000
H        3.37100000    -6.97900000    13.42600000
H        3.18900000    -6.92800000    14.92800000
O       13.13300000     9.26900000    -9.16200000
H       13.28100000     9.82200000    -9.92900000
H       13.34600000     8.38400000    -9.45900000
O        5.18200000   -13.74100000    -6.41700000
H        5.31500000   -13.39700000    -5.53400000
H        4.50700000   -14.41200000    -6.31300000
O        8.09900000   -10.06700000    14.27500000
H        7.83500000    -9.47500000    13.57100000
H        7.35000000   -10.07900000    14.87200000
O       10.93600000   -13.88200000     8.35600000
H       10.02700000   -14.12400000     8.17700000
H       11.37400000   -14.71300000     8.54000000
O       10.97000000     5.85400000    -1.46700000
H       10.12100000     5.56900000    -1.80400000
H       11.34800000     5.06800000    -1.07300000
O        7.27800000    -9.45200000    -3.18500000
H        7.68000000    -8.61600000    -3.42300000
H        8.01900000   -10.03200000    -3.00700000
O        8.89100000   -13.46800000     5.11300000
H        8.58800000   -13.10000000     4.28300000
H        8.39100000   -12.99900000     5.78100000
O        6.44700000     9.41600000     1.26900000
H        7.23500000     9.32900000     1.80500000
H        6.77400000     9.57000000     0.38300000
O       10.23700000    -7.00400000     8.94200000
H       10.21700000    -7.74400000     9.54800000
H       11.02000000    -6.51200000     9.19000000
O      -15.91100000    -2.66400000    -3.39400000
H      -15.64400000    -2.89200000    -2.50400000
H      -15.18500000    -2.14400000    -3.73700000
O        9.65200000     4.64900000    -6.82000000
H        8.76500000     4.63100000    -6.46100000
H       10.10200000     3.92700000    -6.38300000
O        0.56900000    -4.92800000    -7.90000000
H        0.20100000    -5.39500000    -8.65100000
H        1.47300000    -5.23600000    -7.84500000
O        2.25800000    11.25000000    -8.95700000
H        2.78100000    10.50300000    -9.24900000
H        1.51200000    11.26900000    -9.55600000
O      -11.29200000    11.31600000    -9.75200000
H      -11.73200000    12.14000000    -9.54000000
H      -12.00500000    10.69800000    -9.91200000
O        7.15700000     8.66900000    -4.50800000
H        6.88600000     9.22800000    -5.23700000
H        6.46600000     8.01000000    -4.44300000
O        9.65300000    12.01700000     1.00000000
H        9.45500000    11.12200000     0.72600000
H        8.80100000    12.39600000     1.21600000
O      -16.05400000    -8.16200000    -7.71100000
H      -16.63200000    -8.60300000    -8.33500000
H      -15.37600000    -7.76000000    -8.25500000
O      -10.67400000   -12.85800000    -0.89900000
H       -9.73200000   -12.95100000    -1.04600000
H      -10.96500000   -12.25200000    -1.58000000
O        4.89400000    -3.14600000    13.10400000
H        5.40000000    -3.75800000    13.63800000
H        5.38700000    -3.07700000    12.28600000
O       -4.04400000   -10.70800000   -14.69100000
H       -4.63600000    -9.98500000   -14.89800000
H       -3.36900000   -10.66700000   -15.36900000
O        8.37500000   -12.41000000     2.56600000
H        8.61300000   -12.31300000     1.64400000
H        7.83500000   -13.20000000     2.59300000
O       -7.53500000   -10.09800000     4.42800000
H       -6.92800000   -10.40100000     5.10400000
H       -8.27000000   -10.71000000     4.47500000
O       11.58900000    -7.26700000    13.49300000
H       12.10800000    -6.49300000    13.27300000
H       11.42900000    -7.69700000    12.65300000
O        5.14900000   -12.76700000    -3.95000000
H        4.97200000   -12.74900000    -3.01000000
H        5.01300000   -11.86400000    -4.23700000
O        6.03200000    -8.27300000     1.46100000
H        5.49100000    -7.67900000     1.98100000
H        5.59600000    -8.31300000     0.61000000
O       11.91000000   -12.95300000    -5.70400000
H       11.58400000   -13.72300000    -5.23900000
H       11.50100000   -13.00300000    -6.56800000
O      -11.90000000     4.76400000     0.56200000
H      -12.81000000     4.96200000     0.34100000
H      -11.84800000     4.89600000     1.50800000
O        5.48700000     1.59100000     4.46100000
H        5.17400000     2.05800000     5.23500000
H        5.94300000     0.82500000     4.81000000
O        8.50400000    -1.69300000     3.05900000
H        9.24600000    -2.20500000     2.73600000
H        8.90400000    -0.97800000     3.55500000
O      -13.38900000   -10.40700000     6.87100000
H      -13.77900000   -10.91000000     6.15600000
H      -13.08500000    -9.59900000     6.45600000
O       13.78200000     7.98800000     8.71900000
H       14.43500000     7.51400000     8.20500000
H       13.03800000     8.09200000     8.12500000
O        6.88700000    15.27400000    -8.32000000
H        6.23300000    15.61100000    -7.70800000
H        7.55900000    14.88200000    -7.76100000
O       -3.94500000    -7.04100000    -2.77800000
H       -3.00500000    -7.06600000    -2.95700000
H       -4.11800000    -7.84700000    -2.29200000
O        6.17200000    -2.13500000    -3.51700000
H        5.66700000    -1.34300000    -3.70100000
H        6.12300000    -2.64400000    -4.32600000
O       11.90900000    -5.56200000     3.71300000
H       12.80000000    -5.71000000     4.03200000
H       11.35700000    -6.08900000     4.29100000
O        9.85000000     6.60200000    13.93600000
H        9.34500000     6.52100000    13.12800000
H       10.35200000     7.41000000    13.82600000
O      -13.44800000    -5.57000000    -6.36600000
H      -13.02500000    -5.36800000    -5.53100000
H      -14.31400000    -5.16900000    -6.29900000
O      -14.11800000    -6.24500000     3.42700000
H      -13.26700000    -5.84100000     3.59500000
H      -14.67600000    -5.93500000     4.14000000
O       11.41900000    -8.53900000    -2.32400000
H       11.55000000    -9.36400000    -2.79200000
H       11.34800000    -7.88000000    -3.01500000
O      -10.01900000   -10.99200000   -11.66500000
H      -10.37200000   -10.12800000   -11.45100000
H      -10.70900000   -11.41100000   -12.18000000
O        4.07800000   -11.24800000    -7.82600000
H        4.70400000   -11.81400000    -7.37300000
H        3.34400000   -11.16700000    -7.21800000
O        0.76300000    15.16500000    -4.38000000
H        0.23600000    14.57900000    -3.83700000
H        0.19400000    15.38800000    -5.11600000
O      -10.19800000    -4.21600000    -9.63600000
H      -10.44900000    -3.66000000    -8.89800000
H      -10.21200000    -3.63100000   -10.39300000
O        5.96600000    13.35100000     6.37800000
H        6.20700000    12.81600000     5.62200000
H        6.32300000    14.21800000     6.18200000
O        9.92000000    13.95400000     5.57700000
H        9.30300000    13.37200000     5.13200000
H        9.59400000    14.83500000     5.39200000
O       -0.13300000     1.44800000   -14.32500000
H       -1.01500000     1.11000000   -14.17200000
H        0.30600000     0.75600000   -14.82000000
O        6.08000000    -6.72900000    -6.36500000
H        6.99400000    -7.01300000    -6.39700000
H        6.04300000    -5.97300000    -6.95100000
O        8.30200000    -3.59900000    -7.76200000
H        8.61000000    -3.15200000    -6.97400000
H        9.01400000    -3.49100000    -8.39300000
O        4.38200000    13.10100000     1.50200000
H        3.93000000    13.91100000     1.74000000
H        3.82800000    12.40400000     1.85200000
O        1.09500000     9.98900000    -3.40600000
H        1.04900000     9.59500000    -4.27700000
H        1.79200000    10.64200000    -3.47400000
O       11.02600000    -6.57400000    -4.24100000
H       10.58500000    -5.83700000    -3.81800000
H       11.20100000    -6.26900000    -5.13200000
O        8.34600000    -6.26400000   -14.83400000
H        8.91500000    -5.66400000   -15.31600000
H        8.86500000    -6.52800000   -14.07400000
O       11.58000000     3.33700000     5.43400000
H       10.92500000     3.42400000     6.12700000
H       11.70800000     4.22900000     5.11100000
O        4.36100000    -8.77200000    -9.04900000
H        4.60500000    -9.55800000    -8.56100000
H        5.19600000    -8.39700000    -9.33200000
O      -11.98600000     2.73700000     5.90400000
H      -12.52700000     3.13300000     5.22100000
H      -11.30000000     3.38400000     6.07200000
O        6.95600000    11.20200000    -7.25200000
H        6.13200000    11.61800000    -7.50500000
H        6.97400000    10.38300000    -7.74700000
O       -1.01400000   -11.38700000    -3.02700000
H       -0.15400000   -11.79500000    -3.13000000
H       -1.50800000   -12.00100000    -2.48300000
O      -14.83000000    -7.68600000    -0.83700000
H      -15.71800000    -7.75900000    -0.49000000
H      -14.53700000    -6.81600000    -0.56700000
O      -14.88100000     3.83500000    -6.84100000
H      -14.29800000     3.96300000    -6.09200000
H      -15.67100000     3.44500000    -6.46700000
O       -5.23400000     3.54600000     5.56400000
H       -4.56800000     3.38000000     4.89700000
H       -5.39200000     2.69100000     5.96400000
O        9.24400000    -0.99400000    -3.41900000
H        8.94800000    -0.26600000    -2.87300000
H       10.03400000    -1.31400000    -2.98300000
O       11.02700000    13.35900000    -0.70000000
H       10.54500000    12.85200000    -0.04700000
H       11.92500000    13.38400000    -0.37000000
O        8.70300000   -12.38200000    -9.10100000
H        8.09900000   -13.12500000    -9.08800000
H        9.57300000   -12.78100000    -9.09600000
O       11.68100000    -0.89800000   -11.15300000
H       11.65400000    -0.65500000   -10.22800000
H       11.81600000    -0.07000000   -11.61500000
O      -10.91600000     0.02200000     1.37800000
H      -10.24400000    -0.06000000     2.05400000
H      -11.66500000     0.41100000     1.82900000
O        6.76200000    -0.11300000    14.28600000
H        6.98800000     0.79700000    14.48100000
H        6.25500000    -0.06500000    13.47600000
O        8.42000000   -10.71100000    -6.66300000
H        8.58100000   -11.37100000    -7.33700000
H        9.28400000   -10.53400000    -6.28900000
O       11.80700000     1.46300000   -13.18600000
H       10.97800000     0.99800000   -13.30500000
H       12.18500000     1.50700000   -14.06400000
O        5.33600000    -8.53800000    -1.27400000
H        4.66000000    -8.04300000    -1.73700000
H        5.95400000    -8.79700000    -1.95800000
O      -11.67900000    -3.62700000   -13.95200000
H      -12.38500000    -3.05400000   -13.65300000
H      -10.96100000    -3.46300000   -13.34000000
O        1.86400000     2.67800000    -3.70400000
H        1.82100000     1.74200000    -3.90100000
H        2.73300000     2.80100000    -3.32000000
O        9.39600000    -2.53300000    -5.59400000
H        9.03500000    -1.98500000    -4.89700000
H       10.19500000    -2.90300000    -5.21900000
O       11.15300000    -9.52700000    -6.93900000
H       11.30600000    -8.60600000    -6.72600000
H       11.47600000    -9.62200000    -7.83500000
O        8.05400000    -5.52600000     9.37600000
H        7.37800000    -6.06700000     8.96900000
H        8.83600000    -6.07800000     9.37600000
O        0.70100000     3.92400000   -13.31900000
H        0.63700000     3.03300000   -13.66300000
H        1.32800000     4.35900000   -13.89600000
O        6.76400000    -0.92500000     4.96000000
H        7.47600000    -1.22600000     4.39500000
H        6.02200000    -1.48400000     4.72900000
O        7.17400000   -14.02800000    -0.77500000
H        7.61900000   -14.73500000    -1.24200000
H        7.86400000   -13.39200000    -0.58800000
O       -7.57100000     4.42800000   -10.30600000
H       -7.64000000     3.49800000   -10.09000000
H       -8.21100000     4.56000000   -11.00500000
O      -15.17000000    -2.29900000   -11.48700000
H      -15.31800000    -1.63700000   -12.16200000
H      -15.84000000    -2.96300000   -11.65100000
O        0.17700000    -8.83400000    -3.19500000
H        1.07100000    -9.14400000    -3.05500000
H       -0.35800000    -9.62700000    -3.17400000
O        9.17600000   -11.97500000     0.15000000
H       10.07500000   -12.29900000     0.21400000
H        9.02800000   -11.86200000    -0.78900000
O        9.95200000    -4.72700000    -2.57900000
H       10.26800000    -5.39500000    -1.97000000
H        9.01500000    -4.65900000    -2.39500000
O        6.93600000    -6.06300000   -11.49500000
H        7.13000000    -5.12700000   -11.55000000
H        7.35300000    -6.34700000   -10.68100000
O        2.31200000   -12.73000000   -10.49300000
H        2.08700000   -13.46500000    -9.92300000
H        3.26800000   -12.69000000   -10.46600000
O       11.90400000    -5.28400000    10.41900000
H       12.49500000    -5.23300000    11.17000000
H       11.39100000    -4.47700000    10.46200000
O       13.32300000     5.96800000    -2.51700000
H       12.43100000     5.97600000    -2.17000000
H       13.21100000     5.95400000    -3.46700000
O        3.82500000    -6.13000000    -4.93400000
H        3.82500000    -5.24600000    -5.30100000
H        4.52900000    -6.58200000    -5.39700000
O        6.60700000    -3.12700000    11.15200000
H        6.67900000    -3.94100000    10.65300000
H        7.49900000    -2.94900000    11.45100000
O        6.25800000     3.32600000    -1.27200000
H        6.39400000     4.06000000    -0.67400000
H        5.41100000     3.50300000    -1.68200000
O        2.46900000     4.42900000     9.68200000
H        2.70900000     3.80300000    10.36600000
H        3.26800000     4.93100000     9.52500000
O      -15.10600000    -2.71300000    -8.53400000
H      -15.27900000    -2.92800000    -9.45100000
H      -15.24700000    -3.53500000    -8.06400000
O        2.46000000    -8.26200000    -6.05400000
H        2.60200000    -8.19200000    -6.99800000
H        2.77400000    -7.43000000    -5.70100000
O        1.49800000   -12.38000000    -3.30100000
H        1.45100000   -12.57200000    -2.36400000
H        1.35700000   -13.22500000    -3.72600000
O        7.00300000    -8.45200000   -12.71400000
H        7.03300000    -7.53400000   -12.44500000
H        6.49200000    -8.44900000   -13.52300000
O        3.34500000    14.52100000   -14.13100000
H        4.30200000    14.51300000   -14.13700000
H        3.10500000    14.00100000   -13.36400000
O        7.00800000    -9.91600000    11.61700000
H        7.70800000   -10.34400000    11.12500000
H        6.37100000    -9.65600000    10.95200000
O       13.31800000     6.80600000     1.80300000
H       13.03400000     7.61800000     1.38300000
H       14.20700000     6.99100000     2.10500000
O       -8.16200000   -13.56800000    -7.93900000
H       -7.69900000   -13.09300000    -7.24900000
H       -8.47300000   -12.88500000    -8.53300000
O        9.97800000    -8.29500000   -12.12700000
H       10.69100000    -8.02100000   -12.70400000
H        9.39100000    -8.79600000   -12.69300000
O        9.32700000     6.31800000   -13.46800000
H        9.41500000     6.50300000   -14.40300000
H       10.13900000     5.86800000   -13.23500000
O       12.28100000    -9.03000000     4.30100000
H       12.71900000    -8.50400000     3.63200000
H       11.97500000    -9.80700000     3.83300000
O       -2.37900000   -13.68900000    13.79400000
H       -3.27600000   -13.82200000    14.09900000
H       -1.84000000   -13.80500000    14.57700000
O        4.85700000   -10.11300000     2.75500000
H        4.49700000   -10.59100000     2.00800000
H        5.43900000    -9.46100000     2.36400000
O        3.46700000    -1.04200000    14.32000000
H        3.53600000    -1.56400000    15.12000000
H        3.85400000    -1.59300000    13.64000000
O       13.32000000    -4.72000000   -13.78400000
H       13.69800000    -4.88000000   -14.64800000
H       12.80300000    -5.50500000   -13.59900000
O        7.72900000     2.29200000    14.71400000
H        7.69200000     2.88500000    15.46400000
H        8.57000000     2.48200000    14.29800000
O      -13.48200000     1.88800000    12.60500000
H      -13.71600000     1.54500000    11.74300000
H      -12.55000000     1.68800000    12.69800000
O        5.33500000    -1.29000000     9.25400000
H        5.53600000    -2.15600000     9.61000000
H        5.19400000    -1.44100000     8.32000000
O        8.29900000     1.95400000    11.52000000
H        8.41400000     2.84000000    11.17800000
H        7.95300000     2.08100000    12.40400000
O       13.09100000    -4.11900000     7.48500000
H       12.19900000    -3.90900000     7.20800000
H       13.00900000    -4.33500000     8.41400000
O       11.43100000    -2.84800000     3.82700000
H       11.50000000    -3.80100000     3.76700000
H       11.52000000    -2.65900000     4.76100000
O       12.03400000    -1.42100000     8.98400000
H       12.67700000    -1.82100000     9.57100000
H       11.36800000    -1.06000000     9.56900000
O      -15.10900000    -0.57400000    11.79600000
H      -14.80700000    -0.48700000    12.70000000
H      -14.34100000    -0.88200000    11.31500000
O        8.02800000   -12.76200000    13.11500000
H        8.69600000   -13.06700000    12.50100000
H        8.32100000   -11.88800000    13.37300000
O        5.67900000    -1.13600000   -12.61600000
H        5.68900000    -0.79000000   -13.50800000
H        4.87100000    -1.64700000   -12.56600000
O      -15.40200000   -10.01600000    11.58000000
H      -15.26300000   -10.16200000    10.64500000
H      -15.20800000    -9.08800000    11.71000000
O       11.94600000    11.27300000   -14.79900000
H       11.56700000    11.88700000   -15.42900000
H       12.70600000    11.73400000   -14.44400000
O      -13.16800000    -4.24100000     7.92000000
H      -13.75900000    -3.67300000     7.42500000
H      -12.58500000    -3.63700000     8.38000000
O        5.10900000    -9.49700000     9.40800000
H        4.26500000    -9.23300000     9.77300000
H        5.17100000   -10.43300000     9.59800000
O       10.45900000    -8.91800000    10.93900000
H        9.73600000    -9.53100000    10.80600000
H       11.23800000    -9.40300000    10.66600000
O       12.67500000    13.68700000   -11.95200000
H       12.79100000    12.78800000   -11.64400000
H       13.39300000    13.82500000   -12.56900000
O      -13.43600000    -7.42500000     8.33000000
H      -13.16900000    -6.61300000     7.89800000
H      -13.98100000    -7.87300000     7.68200000
O        6.34800000     9.97400000   -14.18100000
H        5.57200000     9.90200000   -13.62500000
H        6.42100000     9.11800000   -14.60300000
O       10.92400000    -6.74300000     5.91000000
H       11.07900000    -6.93000000     6.83600000
H       10.09000000    -7.17200000     5.71600000
O      -12.85000000     4.20100000     9.79100000
H      -13.47500000     3.47700000     9.81500000
H      -12.00200000     3.79400000     9.96800000
O      -10.90200000     0.74800000    13.73100000
H      -10.83500000     0.14900000    12.98800000
H       -9.99400000     0.92000000    13.98200000
O        3.47200000     4.76200000   -10.20800000
H        3.74300000     4.00400000   -10.72500000
H        3.48700000     5.49200000   -10.82700000
O       10.85500000    -3.92600000    -9.45200000
H       11.21200000    -3.06100000    -9.25400000
H       11.45800000    -4.29200000   -10.10000000
O        6.10200000    -7.14800000     8.23400000
H        6.54800000    -7.26700000     7.39600000
H        5.90000000    -8.03700000     8.52700000
O        6.97000000    12.32500000     0.95600000
H        6.03300000    12.32300000     1.15000000
H        7.09300000    11.58500000     0.36100000
O        9.99800000     0.47900000     7.91200000
H       10.74500000     0.07200000     7.47300000
H       10.08300000     0.21200000     8.82700000
O      -14.37100000    -9.74900000   -10.77300000
H      -14.69200000   -10.16600000   -11.57300000
H      -14.99900000   -10.00800000   -10.09900000
O       10.62700000    14.39700000   -13.77600000
H       11.44700000    14.04600000   -13.42900000
H       10.24700000    14.88600000   -13.04600000
O        8.17100000     9.04600000     3.36800000
H        8.19100000     8.26000000     3.91500000
H        9.06400000     9.12700000     3.03200000
O       11.32400000    13.54700000    13.35800000
H       10.78100000    14.07800000    13.94200000
H       11.98400000    14.15600000    13.02600000
O       -9.92300000     7.03400000    10.37900000
H       -9.46200000     7.81200000    10.06600000
H       -9.28400000     6.32600000    10.29300000
O        8.09100000     4.01200000   -13.23400000
H        8.44900000     4.87700000   -13.43500000
H        8.74300000     3.61000000   -12.65900000
O        9.16000000     0.63900000     4.23900000
H        8.59600000     0.84300000     4.98600000
H        8.94300000     1.30400000     3.58600000
O       11.80400000   -11.55800000   -14.21100000
H       11.05400000   -12.13100000   -14.05000000
H       11.48600000   -10.68100000   -14.00000000
O        1.50400000    -8.55200000     6.86500000
H        1.84200000    -9.44600000     6.91500000
H        2.15500000    -8.07700000     6.34800000
O        2.54800000   -10.70400000    12.69900000
H        3.36100000   -11.20200000    12.61400000
H        2.50100000   -10.47700000    13.62800000
O       13.13300000    -2.78700000    11.28100000
H       13.30100000    -3.34300000    12.04200000
H       13.49100000    -1.93300000    11.52400000
O        3.98300000    -7.89500000     5.67700000
H        4.32600000    -8.75700000     5.44200000
H        4.76200000    -7.36000000     5.82900000
O       13.32900000   -11.33100000     1.07200000
H       13.15200000   -12.11200000     1.59700000
H       12.82200000   -10.63800000     1.49600000
O       10.05700000    -2.09900000    12.62700000
H        9.34800000    -2.26400000    13.24800000
H       10.81800000    -1.90900000    13.17500000
O        1.79500000    -6.87200000     9.12200000
H        1.67300000    -7.82100000     9.09200000
H        0.93100000    -6.52600000     9.34800000
O        5.47900000     1.18600000    10.42000000
H        6.15700000     1.00600000    11.07100000
H        5.30200000     0.33600000    10.01600000
O       13.76500000   -11.90300000    13.70800000
H       13.22700000   -11.57300000    14.42700000
H       13.63500000   -11.27100000    13.00100000
O        7.91600000    -9.79000000    -9.92900000
H        7.80000000    -9.97400000   -10.86100000
H        8.16300000   -10.63200000    -9.54700000
O       12.61300000    -9.51600000     8.97300000
H       13.14400000    -8.83200000     9.38200000
H       13.18600000   -10.28200000     8.94800000
O      -13.56800000   -10.70600000    13.99400000
H      -13.74500000    -9.76700000    14.03700000
H      -14.08000000   -11.01400000    13.24600000
O       -6.19500000    -2.69100000     2.17900000
H       -5.88400000    -3.27300000     2.87200000
H       -5.96200000    -3.14100000     1.36600000
O      -13.83100000     1.46500000     9.71200000
H      -14.59200000     0.97200000     9.40700000
H      -13.07800000     0.95500000     9.41300000
O        4.05100000     1.72300000    13.97800000
H        3.83700000     0.80800000    13.79900000
H        4.49200000     1.70500000    14.82800000
O        3.91800000    -5.29300000     8.40900000
H        4.71600000    -5.82100000     8.45600000
H        3.21900000    -5.89200000     8.67300000
O        7.52100000    -1.77600000    -0.80700000
H        7.22200000    -1.86900000    -1.71100000
H        7.78100000    -0.85800000    -0.73300000
O        5.84200000     3.96200000    12.42400000
H        5.60100000     4.72100000    12.95500000
H        5.12100000     3.34400000    12.54600000
O        4.57500000     6.15700000    13.55300000
H        4.72200000     6.43600000    14.45600000
H        4.48000000     6.97300000    13.06100000
O        7.01200000    -7.40300000     5.73200000
H        7.48700000    -6.70700000     5.27800000
H        7.49800000    -8.20100000     5.52200000
O      -15.96400000    -7.32300000    10.03600000
H      -15.08400000    -7.18900000     9.68200000
H      -16.40700000    -6.48500000     9.90100000
O        5.19800000   -10.28400000    -4.76300000
H        6.08600000   -10.06600000    -4.48000000
H        4.87200000    -9.48000000    -5.16900000
O      -10.80700000    -2.94100000    -7.45200000
H      -11.24000000    -3.57400000    -6.87800000
H      -10.51000000    -2.24800000    -6.86300000
O      -10.03300000    -8.45800000    -2.01000000
H       -9.32300000    -8.57100000    -2.64200000
H      -10.10500000    -7.51100000    -1.89600000
O        9.79300000    -0.27800000    10.38200000
H        9.83500000    -0.90000000    11.10900000
H        9.26900000     0.44800000    10.71900000
O       10.88400000    11.62600000     7.17500000
H       11.80600000    11.71700000     7.41900000
H       10.72100000    12.35500000     6.57700000
O      -15.57600000    -4.73100000    -1.10200000
H      -16.25800000    -4.71600000    -0.43000000
H      -15.86000000    -5.40800000    -1.71700000
O        5.92200000    -0.55000000     1.11800000
H        6.56300000    -1.11800000     0.69000000
H        6.40500000    -0.14600000     1.83900000
O        5.26600000     9.08700000    12.15500000
H        5.96700000     9.64100000    11.81100000
H        4.73500000     9.67600000    12.69000000
O      -12.94800000     1.41200000     2.44200000
H      -12.79700000     2.23900000     2.89900000
H      -13.76100000     1.55100000     1.95600000
O        8.02900000   -10.78100000     6.12300000
H        8.50300000   -10.02100000     5.78400000
H        8.45700000   -10.97800000     6.95600000
O      -16.21100000    -5.26900000    12.45000000
H      -15.64500000    -5.00000000    11.72600000
H      -15.63200000    -5.74800000    13.04300000
O       -2.34300000    -8.04400000     0.63900000
H       -1.84000000    -7.64900000    -0.07300000
H       -2.65700000    -7.29900000     1.15200000
O       12.10300000    -1.98000000    14.34900000
H       12.95300000    -1.54100000    14.34500000
H       12.12000000    -2.52900000    15.13300000
O      -12.17100000    -0.18100000     5.09600000
H      -12.76100000     0.54900000     5.28100000
H      -12.21500000    -0.29000000     4.14600000
O        3.26800000    -5.40200000     4.96500000
H        2.88500000    -4.59900000     5.31800000
H        3.02700000    -6.08100000     5.59600000
O        1.13100000   -12.25500000    -0.73700000
H        1.37200000   -12.81300000     0.00300000
H        0.91100000   -11.41200000    -0.34000000
O      -10.62400000    -0.18000000    11.13700000
H      -11.23400000    -0.81500000    10.76000000
H       -9.81700000    -0.67500000    11.27400000
O       -9.90900000   -10.85100000     8.86100000
H       -9.05300000   -11.06300000     9.23400000
H      -10.45800000   -10.65200000     9.61900000
O      -15.43400000    -0.37300000     8.52500000
H      -16.37300000    -0.54900000     8.58100000
H      -15.10400000    -1.02600000     7.90800000
O      -14.03100000    -1.99200000     6.67200000
H      -13.30700000    -1.44800000     6.36300000
H      -14.76600000    -1.75800000     6.10600000
O       11.38900000    -6.20100000    -7.62300000
H       10.99400000    -5.44100000    -8.05100000
H       11.36800000    -6.88800000    -8.28900000
O      -11.44600000    -6.29100000   -14.63900000
H      -11.53500000    -5.35500000   -14.46000000
H      -10.50500000    -6.45700000   -14.58400000
O      -12.50600000    -9.20300000    -0.27700000
H      -11.79800000    -8.75000000    -0.73600000
H      -13.23800000    -8.58600000    -0.29600000
O       -1.71700000    -5.90200000     5.49100000
H       -1.65800000    -4.95000000     5.56800000
H       -1.68700000    -6.06900000     4.54900000
O      -13.65100000    14.95100000     6.32200000
H      -14.31800000    14.26600000     6.30400000
H      -13.94100000    15.58600000     5.66700000
O        3.55500000     2.56600000     6.66600000
H        4.19000000     2.76100000     7.35500000
H        3.32200000     3.42100000     6.30400000
O       11.05000000    -2.11500000     6.43200000
H       10.26900000    -2.60200000     6.69500000
H       11.62000000    -2.14100000     7.20000000
O      -14.37500000    -9.93800000     2.36200000
H      -14.81700000   -10.38400000     1.63900000
H      -15.00400000    -9.28000000     2.65800000
O      -12.29900000   -11.35800000    -9.45900000
H      -11.34500000   -11.28100000    -9.42600000
H      -12.58200000   -10.61300000    -9.98900000
O        6.22500000    -4.14100000     6.76400000
H        5.63600000    -3.39100000     6.67400000
H        5.67800000    -4.83100000     7.14100000
O       12.52800000     6.05600000     5.38100000
H       13.11800000     6.36600000     6.06700000
H       12.42200000     6.80700000     4.79700000
O        2.43100000    11.20400000   -14.28300000
H        2.52800000    12.10600000   -13.97700000
H        3.11200000    11.10300000   -14.94900000
O        8.23500000     0.82100000    -1.56700000
H        7.65300000     1.55000000    -1.78000000
H        8.79700000     1.15900000    -0.86900000
O        6.46200000     1.08000000   -10.71200000
H        5.80400000     1.59100000   -11.18400000
H        6.40500000     0.20400000   -11.09300000
O        3.46900000   -14.43800000     2.23700000
H        3.76700000   -14.14800000     1.37500000
H        2.59500000   -14.06000000     2.32900000
O        8.49300000    11.68700000     4.76800000
H        9.22700000    11.23700000     4.34900000
H        7.71700000    11.34600000     4.32200000
O        5.88600000    15.23400000   -10.71000000
H        5.40700000    16.05600000   -10.61400000
H        6.20800000    15.03900000    -9.83000000
O        3.69300000     9.50100000    -1.44000000
H        4.19300000     9.64400000    -2.24400000
H        4.29500000     9.03000000    -0.86400000
O        0.15200000   -11.90400000    -7.96400000
H        0.41300000   -12.78000000    -8.24700000
H        0.97200000   -11.47700000    -7.71800000
O        1.77000000   -10.84800000    -6.17700000
H        1.93700000    -9.91800000    -6.02100000
H        1.61000000   -11.21300000    -5.30700000
O        4.24400000     9.61100000   -12.17600000
H        3.52000000    10.10000000   -12.56500000
H        4.16500000     9.77300000   -11.23600000
O        5.61400000   -14.48500000     4.40600000
H        6.22600000   -14.69900000     3.70100000
H        4.87100000   -14.07600000     3.96200000
O       11.06400000     6.91800000    -6.87400000
H       10.93200000     7.50200000    -6.12700000
H       10.28100000     6.36800000    -6.89100000
O        5.02900000   -12.38600000   -10.26100000
H        5.02600000   -11.83700000    -9.47600000
H        5.47600000   -11.85700000   -10.92200000
O        5.92300000    -4.35700000     1.22000000
H        5.89800000    -4.17800000     0.27900000
H        6.80300000    -4.70200000     1.37500000
O       11.77900000     2.93500000    -5.63900000
H       11.66200000     2.80100000    -4.69900000
H       12.22300000     3.78100000    -5.70700000
O      -15.05200000    11.10700000    -1.02900000
H      -15.87600000    10.74300000    -0.70700000
H      -14.85400000    10.59500000    -1.81300000
O      -14.15100000    15.19100000     3.64200000
H      -13.83800000    14.28700000     3.65500000
H      -14.57400000    15.28600000     2.78800000
O      -14.92900000     3.96400000     5.04000000
H      -15.81400000     4.28400000     4.86600000
H      -15.05000000     3.04900000     5.29500000
O      -14.00500000    13.83700000   -11.49200000
H      -14.43700000    14.27800000   -12.22300000
H      -13.61800000    14.54700000   -10.97900000
O        1.37400000     5.11800000    -8.06700000
H        0.48600000     4.77300000    -7.97300000
H        1.63600000     4.86700000    -8.95300000
O        9.41700000    10.85800000    13.78600000
H       10.26500000    10.41900000    13.71000000
H        8.95900000    10.63600000    12.97500000
O       10.59000000     3.06700000    -1.44100000
H       10.19400000     3.28700000    -0.59700000
H       10.72700000     2.12000000    -1.40100000
O        3.84700000     9.05000000    -9.54800000
H        3.37400000     8.21800000    -9.53100000
H        4.76100000     8.80900000    -9.39700000
O        6.95900000     7.12900000    -1.50900000
H        6.48400000     7.11300000    -2.34000000
H        7.86700000     6.94300000    -1.74800000
O        5.44100000    12.52700000   -11.06600000
H        5.74800000    12.20600000   -11.91400000
H        5.71600000    13.44400000   -11.04300000
O        6.48100000     8.68600000    -8.75100000
H        6.42900000     7.90200000    -8.20400000
H        7.39900000     8.73300000    -9.01800000
O      -13.34900000     8.74500000     6.70400000
H      -13.19600000     9.11400000     5.83500000
H      -13.53800000     9.50300000     7.25700000
O        9.14400000   -11.25000000    -2.59000000
H        8.77100000   -11.85700000    -3.22900000
H       10.00000000   -11.01800000    -2.95000000
O      -13.03200000    12.27100000     0.57200000
H      -13.67300000    11.79700000     0.04300000
H      -12.96900000    13.13200000     0.15900000
O        8.02700000     7.32900000   -11.26500000
H        8.67200000     7.95200000   -10.93100000
H        8.35200000     7.08800000   -12.13200000
O        9.23800000     2.02300000   -11.27000000
H        9.34500000     1.36700000   -11.95900000
H        8.40400000     1.80100000   -10.85500000
O      -14.87700000     9.88200000    13.97600000
H      -15.33300000     9.09200000    14.26500000
H      -13.96600000     9.60800000    13.86800000
O        9.58800000     6.39300000     8.25000000
H        9.85300000     7.19600000     7.80200000
H        8.94300000     5.99400000     7.66700000
O       11.98700000     0.54600000    -0.87500000
H       12.24300000    -0.34300000    -1.11900000
H       12.62100000     1.10900000    -1.32100000
O        5.41200000     3.18000000    -6.00900000
H        4.60200000     3.46800000    -5.58800000
H        5.12200000     2.67300000    -6.76700000
O        5.22400000     6.80100000    -4.09300000
H        4.28700000     6.88400000    -3.91600000
H        5.27100000     6.42500000    -4.97200000
O        3.85600000    11.46600000    13.38000000
H        2.97000000    11.82200000    13.31700000
H        4.29700000    11.77800000    12.59000000
O        6.68300000     4.81500000     2.37900000
H        6.21600000     5.56600000     2.01100000
H        7.34100000     5.20200000     2.95700000
O        3.62800000     7.04300000    -7.40900000
H        3.03300000     6.37500000    -7.75000000
H        4.42600000     6.56300000    -7.19000000
O        7.61900000     3.25100000    -4.48700000
H        8.06800000     2.43700000    -4.71400000
H        6.86800000     3.28300000    -5.08000000
O       11.38600000    11.33900000    -8.49300000
H       11.67300000    10.43600000    -8.36300000
H       11.31100000    11.43300000    -9.44300000
O       11.06900000    10.72600000     3.86100000
H       11.14600000    10.09400000     3.14700000
H       11.85800000    11.26300000     3.79300000
O       12.91300000     0.75300000     2.38400000
H       12.58300000     0.54700000     3.25800000
H       12.47300000     0.12800000     1.80800000
O        0.94000000     8.21300000     2.66900000
H        0.79600000     7.51800000     2.02600000
H        0.69100000     9.01700000     2.21400000
O        9.43100000   -12.35600000   -12.72600000
H        8.61200000   -11.86300000   -12.77100000
H        9.19400000   -13.17800000   -12.29700000
O       11.75300000     1.98100000   -10.03900000
H       11.08000000     1.94800000   -10.71900000
H       12.14200000     2.85200000   -10.12800000
O        2.07700000    -3.04900000     3.13100000
H        2.02800000    -2.80800000     4.05600000
H        2.94300000    -2.75200000     2.85200000
O       -4.29000000   -10.31600000     0.46600000
H       -5.02700000   -10.11000000     1.04200000
H       -3.58800000    -9.73500000     0.75800000
O        8.54300000    15.21600000   -11.73500000
H        7.59600000    15.10300000   -11.65900000
H        8.89700000    14.80700000   -10.94500000
O        8.07000000    13.97200000    -6.32900000
H        8.90200000    13.49900000    -6.31400000
H        7.43900000    13.35900000    -5.95200000
O       11.54500000    13.84600000    -7.41400000
H       11.48200000    12.89400000    -7.49500000
H       11.47000000    14.01100000    -6.47400000
O       10.63300000     8.74000000     2.11700000
H       10.96200000     9.03300000     1.26700000
H       10.35600000     7.83600000     1.96900000
O       12.55800000     8.92000000   -12.86800000
H       13.46200000     9.22500000   -12.80000000
H       12.14500000     9.52700000   -13.48200000
O        2.01700000    14.83700000    -1.15100000
H        2.74000000    15.46000000    -1.08300000
H        2.43600000    14.00600000    -1.37300000
O      -15.20200000     1.39600000     5.99600000
H      -15.06500000     1.15000000     6.91100000
H      -16.04200000     0.99900000     5.76400000
O       13.62700000    12.53800000     3.15200000
H       13.46600000    13.00200000     2.33000000
H       13.17900000    13.06200000     3.81500000
O       -8.95100000     9.13300000     2.51700000
H       -9.12500000     9.94500000     2.04300000
H       -8.60200000     8.53700000     1.85400000
O      -11.27200000     6.10800000     5.33400000
H      -11.18600000     7.03600000     5.55200000
H      -11.19800000     5.65600000     6.17400000
O        9.21800000    11.51300000    -3.22700000
H        8.96700000    11.10000000    -4.05300000
H        8.59200000    12.22900000    -3.11700000
O       -0.62400000     8.96500000   -11.96400000
H       -0.14100000     8.78300000   -12.77000000
H       -0.71900000     8.11000000   -11.54400000
O       -2.57400000    13.42200000     0.36300000
H       -1.63800000    13.35300000     0.55000000
H       -2.82100000    12.55300000     0.04700000
O        9.08200000    10.66200000   -13.18900000
H        8.17100000    10.37100000   -13.17300000
H        9.30300000    10.70800000   -14.11900000
O        5.06900000    12.66900000    -8.45200000
H        5.33400000    12.44200000    -9.34300000
H        5.45100000    13.53300000    -8.30000000
O        0.96900000    12.36400000    13.20500000
H        0.30800000    12.61200000    13.85100000
H        0.46700000    11.99700000    12.47700000
O       -0.03800000    -9.93300000     0.77100000
H       -0.00400000    -9.98700000     1.72600000
H       -0.63200000    -9.20300000     0.59400000
O      -13.20500000    12.96600000    -2.73300000
H      -14.06100000    12.54100000    -2.78500000
H      -12.81700000    12.83300000    -3.59700000
O       12.60700000     4.70400000   -11.13800000
H       13.47500000     4.32600000   -11.28300000
H       12.07700000     4.37100000   -11.86200000
O       11.23500000     4.39300000   -13.45800000
H       11.72800000     4.67800000   -14.22800000
H       11.26200000     3.43700000   -13.49600000
O      -15.91400000    11.37500000   -11.35800000
H      -15.48200000    10.83300000   -12.01900000
H      -15.24100000    11.99600000   -11.08000000
O        5.82200000     5.76800000    -6.71400000
H        5.70700000     4.82400000    -6.61100000
H        6.32700000     5.86200000    -7.52100000
O        4.73600000    11.28500000    -3.45400000
H        4.51900000    11.44800000    -4.37200000
H        4.71100000    12.14900000    -3.04400000
O       11.27200000   -13.31700000    -8.73300000
H       11.54600000   -12.83400000    -9.51300000
H       11.92900000   -14.00600000    -8.63400000
O        2.40800000     6.39600000    -3.66000000
H        2.20500000     5.76600000    -4.35100000
H        1.78600000     7.11000000    -3.79500000
O       11.50800000    14.42600000    -4.56200000
H       11.36700000    14.87400000    -3.72800000
H       12.41700000    14.13000000    -4.52600000
O       -6.18700000    13.82700000     2.56800000
H       -5.53700000    13.12600000     2.52100000
H       -7.02400000    13.39000000     2.41000000
O      -15.46200000    10.58800000     4.82600000
H      -14.53400000    10.37100000     4.91300000
H      -15.49400000    11.21900000     4.10800000
O       -3.81500000     1.92800000    13.77600000
H       -3.13400000     2.60000000    13.80600000
H       -3.63100000     1.43500000    12.97600000
O       13.42000000    -4.88800000   -11.06100000
H       13.15200000    -5.05600000   -11.96400000
H       14.25400000    -5.34800000   -10.96800000
O        8.85500000    14.05500000    -2.10600000
H        9.58300000    13.56900000    -1.71900000
H        9.26500000    14.81500000    -2.51800000
O       10.17600000     6.07900000     1.53300000
H        9.87500000     5.23900000     1.18700000
H       11.06700000     5.90700000     1.83800000
O      -15.16400000    15.46200000    -5.05200000
H      -14.66600000    14.90100000    -5.64800000
H      -16.00700000    15.58600000    -5.48800000
O      -15.95600000   -14.21800000    -8.85600000
H      -15.95100000   -14.29000000    -9.81100000
H      -15.41100000   -14.94600000    -8.55800000
O        4.02100000    11.81700000    -6.04300000
H        4.29800000    11.87200000    -6.95700000
H        3.79400000    12.71600000    -5.80600000
O        7.55300000    14.68700000    12.37400000
H        7.77800000    14.15900000    13.14000000
H        7.63000000    15.59200000    12.67600000
O        1.71800000   -12.99900000   -12.98500000
H        1.73300000   -13.18900000   -12.04700000
H        1.91100000   -13.83900000   -13.40300000
O        5.20000000     6.94400000   -11.79700000
H        6.10600000     7.10500000   -11.53400000
H        4.84400000     7.81400000   -11.97400000
O        8.74900000     3.63800000     0.53000000
H        9.03300000     2.77800000     0.83800000
H        8.17800000     3.96500000     1.22500000
O        9.85500000     8.58000000    -4.82600000
H        8.95600000     8.40200000    -4.55100000
H        9.79300000     9.38200000    -5.34500000
O       -8.23900000    -9.84300000    13.83100000
H       -7.86400000    -9.75800000    14.70700000
H       -8.72200000   -10.66900000    13.85500000
O      -15.53400000     8.53600000    -6.61400000
H      -15.89900000     8.94100000    -7.40000000
H      -16.22800000     8.61400000    -5.95900000
O        5.00700000   -11.65000000    12.71800000
H        5.54400000   -12.23100000    13.25700000
H        5.62100000   -10.99400000    12.38700000
O        3.00900000    10.75900000     2.63100000
H        2.76000000    11.02400000     3.51600000
H        2.43400000    10.02000000     2.43100000
O        8.60400000    11.99900000     8.98900000
H        9.37600000    11.91100000     8.43000000
H        7.93600000    11.46100000     8.56300000
O        3.70400000    12.81600000     8.29300000
H        4.45400000    12.64600000     7.72300000
H        3.51800000    13.74800000     8.17200000
O        9.99400000    14.15900000    -9.67300000
H       10.43300000    14.44900000    -8.87300000
H       10.44600000    13.35000000    -9.91400000
O        5.91400000    13.05000000   -13.98200000
H        6.83900000    13.11500000   -14.21900000
H        5.64300000    12.19200000   -14.30900000
O        1.52800000     6.24800000   -11.77600000
H        1.33000000     5.39700000   -12.16800000
H        1.68800000     6.82400000   -12.52300000
O       12.61800000     8.73900000     5.30900000
H       13.47200000     9.14000000     5.15000000
H       11.99700000     9.30900000     4.85400000
O        3.09900000     7.89500000     4.37300000
H        2.79100000     7.55500000     5.21300000
H        2.31100000     7.95000000     3.83300000
O       12.84100000     4.85800000    14.11300000
H       12.40900000     4.53300000    13.32300000
H       13.66000000     4.36600000    14.15900000
O        6.36800000     8.33500000     9.38700000
H        7.20500000     8.80000000     9.40700000
H        5.83600000     8.82500000     8.76000000
O       13.24800000     5.61000000    -5.38900000
H       14.05400000     6.01100000    -5.71500000
H       12.62800000     5.69800000    -6.11300000
O       13.65400000   -13.24700000     7.72700000
H       13.88700000   -13.89900000     7.06600000
H       12.71200000   -13.36200000     7.85600000
O       -1.47100000     9.81300000    13.86800000
H       -2.32900000    10.23600000    13.88900000
H       -0.99600000    10.26700000    13.17200000
O      -14.60100000     6.01600000    11.12100000
H      -14.09400000     5.38700000    10.60700000
H      -15.20700000     6.40700000    10.49100000
O       10.31600000    -4.36800000    14.67000000
H       10.29600000    -3.81700000    15.45200000
H       10.16800000    -3.76000000    13.94500000
O       13.01500000    11.93500000    10.98600000
H       12.43900000    11.98900000    11.74800000
H       12.50700000    11.45000000    10.33500000
O       11.34400000    10.13200000     9.56400000
H       10.52900000    10.04400000     9.07100000
H       11.28300000     9.46600000    10.24900000
O       10.36700000     3.74600000     8.98000000
H       10.51300000     4.57700000     8.52900000
H        9.43200000     3.57200000     8.86900000
O      -13.24200000    11.21500000     8.14900000
H      -12.31600000    11.00000000     8.03400000
H      -13.23700000    12.07100000     8.57800000
O        7.79200000     7.26900000    12.18000000
H        8.47800000     7.75000000    11.71800000
H        7.00800000     7.80800000    12.07200000
O       11.98200000     0.51200000     5.19100000
H       11.98900000     1.44700000     4.98300000
H       11.10400000     0.34900000     5.53400000
O        9.97900000     3.04100000    13.87100000
H       10.66900000     2.41100000    13.66600000
H       10.34000000     3.88700000    13.60600000
O       13.82100000    13.53600000     6.86600000
H       13.29100000    13.88500000     7.58300000
H       13.95700000    12.61600000     7.09300000
O       11.47100000     8.80400000    13.45500000
H       12.11000000     9.30400000    13.96200000
H       11.97400000     8.44000000    12.72700000
O       11.72500000     3.42100000    11.63800000
H       11.27500000     3.80700000    10.88700000
H       11.78600000     2.48900000    11.42800000
O        4.73800000     5.94200000     9.54600000
H        5.35700000     6.66900000     9.61100000
H        4.72500000     5.72100000     8.61400000
O       10.03200000   -13.82000000    11.53900000
H        9.80200000   -14.40900000    10.82100000
H       10.82500000   -14.20000000    11.91700000
O        8.01300000    -2.24100000    14.38500000
H        7.62000000    -1.36800000    14.37700000
H        7.27600000    -2.83400000    14.53500000
O      -12.28900000   -11.85700000   -13.46400000
H      -12.92600000   -11.39900000   -14.01300000
H      -12.81600000   -12.44300000   -12.92200000
O       12.99300000     7.51300000    11.49400000
H       13.70800000     7.00900000    11.88300000
H       13.38400000     7.93100000    10.72700000
O       10.37300000     7.60600000    10.82500000
H       11.21500000     7.18900000    11.00800000
H       10.05100000     7.16100000    10.04000000
O        8.18500000    14.71800000     9.66300000
H        8.20200000    14.45200000    10.58200000
H        8.38500000    13.91800000     9.17800000
O        3.31200000     8.33100000    10.23800000
H        3.42300000     7.60900000     9.61900000
H        4.02700000     8.22300000    10.86400000
O        4.65300000   -10.59500000     5.24700000
H        4.77800000   -10.54500000     4.30000000
H        5.52400000   -10.44400000     5.61300000
O       12.93500000    14.31600000     9.33300000
H       13.77700000    14.66700000     9.62500000
H       12.76100000    13.58500000     9.92600000
O        0.75100000   -13.28700000    12.09000000
H        1.39100000   -13.90200000    12.45000000
H        1.03800000   -12.43000000    12.40500000
O       10.07300000    11.90700000   -11.09100000
H        9.58200000    12.71600000   -10.94800000
H        9.72500000    11.55800000   -11.91100000
O        0.95500000    13.91500000     9.81800000
H        1.49600000    14.00900000    10.60200000
H        1.09000000    13.00900000     9.54100000
O        7.53500000    10.45600000     7.07600000
H        6.76700000    10.10200000     6.62700000
H        8.06500000    10.84100000     6.37800000
O        5.16800000     9.02000000     5.78800000
H        4.43300000     8.58500000     5.35700000
H        4.77100000     9.49600000     6.51700000
O      -12.91200000    15.20100000     8.86500000
H      -13.19000000    15.00300000     7.97100000
H      -12.47600000    16.05100000     8.79900000
O        8.33700000    -5.08100000     5.11600000
H        9.16800000    -4.86600000     5.54000000
H        7.66900000    -4.74000000     5.71100000
O      -13.38100000     6.66400000   -14.46500000
H      -14.22200000     7.12200000   -14.45600000
H      -13.19500000     6.52400000   -15.39400000
O        2.48900000    12.07600000     4.97900000
H        3.31200000    12.50900000     5.20500000
H        1.85000000    12.44100000     5.59000000
O        7.87300000   -12.83000000     8.36200000
H        6.99900000   -12.55100000     8.63700000
H        7.91600000   -13.75600000     8.60100000
O       12.72100000     1.62900000    14.03900000
H       13.33000000     2.35800000    13.92400000
H       13.28200000     0.85800000    14.12200000
O        7.50800000     5.94900000    -8.89700000
H        8.37000000     5.55000000    -8.77800000
H        7.53900000     6.33300000    -9.77300000
O        4.93400000     7.45900000     2.34600000
H        4.55600000     7.56400000     3.22000000
H        5.37200000     8.29200000     2.17200000
O       13.27300000    -8.03100000     6.74200000
H       12.88400000    -8.32600000     5.91900000
H       12.94100000    -8.64400000     7.39800000
O      -11.04600000     5.76300000     8.31800000
H      -10.65200000     6.30900000     8.99800000
H      -11.85200000     5.43100000     8.71400000
O        8.48100000    13.41600000    14.58800000
H        8.84300000    12.57100000    14.32200000
H        9.09700000    13.74600000    15.24200000
O        6.23100000   -13.89400000   -14.98000000
H        6.76400000   -14.17100000   -14.23500000
H        6.86700000   -13.68000000   -15.66300000
O      -14.02100000   -12.05500000     4.64000000
H      -14.04900000   -11.39600000     3.94600000
H      -14.69300000   -12.69100000     4.39500000
O       -0.05700000    14.76300000     3.59000000
H       -0.99400000    14.67600000     3.41300000
H        0.05100000    14.42800000     4.48000000
O        4.30100000     9.71100000     8.20400000
H        3.99800000    10.61000000     8.33000000
H        3.75400000     9.18900000     8.79100000
O      -15.21600000    -8.28000000   -14.09500000
H      -14.88700000    -7.82600000   -14.87100000
H      -14.47200000    -8.29900000   -13.49400000
O      -11.52200000    11.36500000    10.97400000
H      -12.45700000    11.53100000    11.09100000
H      -11.38400000    10.49400000    11.34800000
O       -6.08400000    11.73600000     6.96900000
H       -5.25700000    11.26500000     7.07400000
H       -5.82400000    12.64800000     6.83300000
O       -2.97100000    14.75000000     3.10400000
H       -2.66400000    14.16100000     2.41500000
H       -3.74000000    15.17800000     2.72800000
