2637
0 1 None
O        0.00000000    -1.43300000     0.00000000
H       -0.96200000    -1.67000000     0.00000000
C        0.00000000     0.00000000     0.00000000
H       -0.49000000     0.41700000     0.88600000
H        1.04000000     0.33100000     0.00000000
H       -0.49000000     0.41700000    -0.88600000
O      -10.84642227    -1.94088729    -1.21803418
H      -11.06166683    -1.13299779    -0.75196961
H      -10.66587567    -2.57660044    -0.52557222
O        4.35326274     1.28365431   -11.49827761
H        4.29898459     0.71536212   -10.72994843
H        3.46318925     1.29714768   -11.85015679
O        6.33837698   -10.37525653    14.91627741
H        5.76064752   -10.59250775    15.64789373
H        6.05774671    -9.50290226    14.63973352
O       -7.96276346    11.62399236   -10.85273311
H       -8.71048452    11.11422401   -10.54083362
H       -8.05657013    12.47459754   -10.42389399
O        6.14678708   -14.42777555     6.79505331
H        6.17901204   -15.22444741     6.26542386
H        6.48347293   -13.74223405     6.21807208
O       -8.27651627     3.06636465     6.46952674
H       -8.88516091     3.40369392     7.12678812
H       -7.44104058     3.48362119     6.67954864
O       -3.09436954    -3.63163900    -2.94048265
H       -3.48446685    -4.49945779    -2.83585714
H       -2.20771995    -3.72344548    -2.59169055
O       -9.12670461    -8.76342085    -6.36267068
H       -9.63701598    -9.55300738    -6.18276164
H       -9.20299462    -8.63872462    -7.30864242
O      -14.26712927    -1.54662067    -6.49394848
H      -15.13614282    -1.19355230    -6.68471018
H      -14.22004647    -2.35615443    -7.00254473
O        3.90784720     3.03126591    -5.71874346
H        3.36659130     2.50941533    -5.12633661
H        3.33753543     3.21581006    -6.46501405
O       -5.86398612    -6.92157587     2.81241013
H       -6.10137482    -7.51747157     3.52289360
H       -5.53388263    -7.49363759     2.11958336
O       -3.73094938    -4.26543108    -9.29852314
H       -4.40786038    -4.06296080    -8.65274522
H       -3.10190626    -4.80923288    -8.82437525
O        2.50138740    -0.31598923     2.97746643
H        2.73642836    -0.88569439     3.70987590
H        2.99231912    -0.66599828     2.23402069
O        7.14749357    -6.10824004    -8.66902252
H        6.89762805    -5.59487232    -9.43730154
H        7.99082588    -5.74357013    -8.40062295
O       -9.33088949    -1.89489020    -6.00886125
H       -9.08168166    -1.72430777    -5.10055021
H       -9.97451136    -1.21631342    -6.21261672
O       14.32980512     3.34724835     0.16647325
H       14.33072694     4.02442518     0.84298085
H       14.77939483     3.74972167    -0.57657195
O      -12.42717674    -8.50148995    13.84124997
H      -11.59239789    -8.26946486    14.24811664
H      -12.25674305    -8.45505739    12.90049058
O       -2.11147153     9.99005431    -0.81363205
H       -1.18217179     9.79727883    -0.68924774
H       -2.43323641     9.27572797    -1.36357486
O       13.06681857   -10.12273333    -9.48892088
H       12.26253936    -9.67418138    -9.75001081
H       13.14414996   -10.85334132   -10.10248724
O        3.37579831     5.69586173   -14.37028274
H        3.22990466     6.62591148   -14.54335606
H        3.88073640     5.38801369   -15.12294399
O       -4.27638715     0.38717581    -8.35619631
H       -3.78551675     1.04626785    -7.86540531
H       -5.18675931     0.51985215    -8.09190223
O        3.46883116   -10.74085834    10.06170044
H        3.33612100   -11.28059725    10.84099613
H        3.18286483   -11.29427219     9.33493485
O       13.84656971    -5.64347226     0.77364950
H       13.01003076    -5.89580575     0.38280139
H       13.84035961    -6.05275548     1.63891278
O      -12.49697108     5.20505500   -11.24777505
H      -11.57196814     5.31090724   -11.02552133
H      -12.82575452     4.57066815   -10.61083971
O        2.96971724    -1.16174835    -4.32622591
H        2.34205734    -1.23414598    -5.04527632
H        2.91017627    -2.00125875    -3.87025550
O       -1.45678338    -0.92369607   -14.45616512
H       -1.87969047    -1.77394333   -14.57641919
H       -1.89772363    -0.34608255   -15.07919495
O        1.94528931     6.39603334    -1.58000582
H        2.28721619     7.23882218    -1.87837613
H        2.64417278     5.77133039    -1.77375819
O      -10.59599728    13.16387870    11.22856320
H       -9.92221677    12.52775487    10.98856704
H      -10.83749519    13.58117680    10.40165758
O       -3.19642410     7.46535363    -6.51838313
H       -3.42721934     8.30114836    -6.92386134
H       -2.56169798     7.07446723    -7.11885164
O       -0.42094591    10.46358146   -13.11081912
H        0.21105223    10.49306021   -13.82910960
H       -0.26891747     9.61639680   -12.69201444
O      -13.37809655    -7.77004672    -9.83336495
H      -13.43741528    -8.53848812   -10.40100122
H      -12.45139930    -7.71498527    -9.60005767
O      -10.59443169   -13.88355073     1.63904874
H      -11.46458789   -13.89409841     1.24036491
H       -9.99688330   -14.07462043     0.91609636
O        2.04153887    -1.23881092    13.36696450
H        2.95857889    -1.32840002    13.62627752
H        2.07501059    -0.81636188    12.50868232
O       -3.93129461   -13.42235312     3.22673560
H       -3.79705825   -12.49366306     3.03766624
H       -3.23785811   -13.64336615     3.84845170
O        0.20821834   -14.98249690    -6.11680795
H        0.09149956   -14.20511074    -6.66295751
H       -0.36526991   -15.64033174    -6.50999545
O       -8.16274495    11.30106288    -5.26805722
H       -7.50491050    11.92998206    -4.97149971
H       -7.96691063    11.16832001    -6.19555930
O       -2.72040442    -6.58153960    11.95296346
H       -2.76280836    -5.87723423    11.30613450
H       -2.32861112    -6.17448517    12.72564487
O       13.54669428    -0.09386530    -7.39730578
H       13.48196271     0.23593163    -8.29356225
H       13.47485129     0.68705319    -6.84845539
O       -6.57189496    -9.16020141   -11.55636617
H       -5.99693270    -8.50100678   -11.94509832
H       -7.15660176    -8.66194142   -10.98532608
O        9.46391761    -6.21924753     2.34809653
H        9.80910134    -7.10277898     2.21983027
H        9.50789454    -6.07939062     3.29400241
O       -7.16185405    -1.86447612    -7.92510843
H       -7.87956249    -1.86308201    -7.29176453
H       -6.48455777    -2.40545935    -7.51910504
O       -5.84210506   -12.81695229    -2.72165999
H       -5.72264564   -12.14662999    -3.39443731
H       -5.34955812   -12.49129034    -1.96828514
O        0.88074746    -1.65972475    -5.98276321
H        0.19123830    -1.00129046    -6.06804664
H        0.42394916    -2.49718490    -6.06167877
O       -7.29309389     1.66755786    -2.48014369
H       -7.59980433     2.32136351    -1.85189317
H       -7.36004162     0.83519589    -2.01225118
O        7.52470541   -12.10034653   -12.33216438
H        6.72426548   -12.43465767   -12.73684182
H        7.54331724   -11.17274740   -12.56763265
O        6.19029301     4.85870906     0.00255246
H        6.19302684     5.37253510     0.81014592
H        6.85645255     5.27169524    -0.54690703
O       -7.78028022    -7.41916663    14.86544594
H       -7.44288827    -7.24402244    15.74392361
H       -7.00076626    -7.45053613    14.31082373
O       -4.55165766    10.25496152    11.82658014
H       -4.75053018    10.89853823    11.14651353
H       -5.29790396    10.29914876    12.42440604
O       -3.79971862    10.63710956   -13.39208737
H       -3.67970421    11.55018230   -13.65309802
H       -2.91947467    10.33308367   -13.17079416
O      -10.25910523   -12.03784987    -2.69323844
H      -11.15781115   -11.71377892    -2.63376119
H       -9.71745617   -11.29190104    -2.43553997
O       -1.79804342    -3.25893314    12.03373820
H       -1.67707995    -3.87278463    11.30931702
H       -0.95703801    -3.25842351    12.49083937
O       -3.55858405     5.22328720    -2.01747278
H       -3.59777088     5.96346165    -2.62314433
H       -2.63392892     4.97645126    -1.99967483
O        0.63081245   -11.09393497     8.21818308
H        1.18997147   -10.50946747     7.70635227
H        0.61719504   -11.91077151     7.71935998
O       -0.35361341     3.94638332    -7.18200790
H       -1.03407171     3.28838001    -7.03974055
H       -0.74136118     4.56198446    -7.80403584
O      -10.02587354    -1.48858030    -8.95249453
H       -9.90105899    -2.42552962    -8.80156692
H      -10.69686057    -1.23095839    -8.32032429
O       -3.01217853   -10.68166474     3.45178553
H       -2.19733661   -10.25597187     3.18523331
H       -3.05432942   -10.54773135     4.39863134
O      -11.97445217     8.13677213    -9.98675951
H      -12.69294356     7.72429671    -9.50731609
H      -11.41334792     7.40803518   -10.25196948
O       -5.56074122    -9.61014918    -1.44968985
H       -6.41866122    -9.94723810    -1.19166623
H       -5.41548543    -9.96858525    -2.32527891
O       -8.45057665     3.44247691    -0.79609179
H       -9.20446258     3.46229961    -0.20660480
H       -8.02009793     4.28709441    -0.66364854
O       -2.23744697   -10.86118459    -2.03047522
H       -1.49711222   -11.45560195    -2.15214816
H       -2.53283921   -11.02592708    -1.13502272
O       -3.98188682    -0.10763928    -3.05105004
H       -4.69723902    -0.12385895    -3.68684876
H       -3.84667959     0.82163532    -2.86557883
O       -3.64693834    -6.93000963    -5.58467890
H       -3.70857461    -7.73601403    -5.07204870
H       -4.54028719    -6.58662090    -5.60029548
O       -7.58885201    13.17772859   -13.29544440
H       -8.24999956    12.64766992   -13.74058885
H       -7.47900826    12.75768610   -12.44237318
O        0.73661989     2.96712422   -10.52517808
H        1.23351302     2.53743896   -11.22138182
H        0.91547827     2.44328128    -9.74426189
O       -8.95909059   -14.74862163   -10.57733298
H       -8.22115889   -15.03563160   -10.03945387
H       -8.73318563   -13.85569532   -10.83787358
O       -5.47444699    -6.87829337    -8.42802578
H       -5.06708131    -7.16282533    -7.60990194
H       -5.01530809    -6.07002073    -8.65632092
O       -3.98328101     2.71365372     0.96509321
H       -3.35667347     2.54661196     0.26103931
H       -4.68855615     2.08463867     0.81291274
O       -5.90040485    -5.51375605    -4.99931073
H       -5.83317285    -5.66217268    -4.05608000
H       -6.78769123    -5.79410420    -5.22372027
O       -6.28273132     7.50320637    -9.29144318
H       -6.26155593     6.83824459    -8.60325042
H       -5.36210057     7.66314870    -9.49902289
O       -2.68209122   -12.57636038    -8.34330209
H       -2.43083899   -12.79925474    -7.44696384
H       -2.60220512   -13.39878283    -8.82649085
O      -12.17974088    -5.30119610     0.91468701
H      -13.01907113    -5.13996633     0.48368637
H      -12.40892445    -5.76279673     1.72130439
O      -11.08823615    -9.70517599     3.53016402
H      -10.53176350   -10.47551467     3.41549775
H      -11.92449721    -9.95230976     3.13541829
O       -7.68191943   -10.12237498    -4.30985187
H       -8.03952520    -9.56564342    -5.00151649
H       -7.12111065   -10.74670652    -4.77021639
O      -10.49003107   -11.30326148    -6.44007772
H      -10.68773096   -11.98144785    -5.79415988
H      -10.00683774   -11.76074565    -7.12816513
O        3.26603835    -4.39564740    -3.85371876
H        4.05127354    -4.52434771    -4.38576555
H        2.54587955    -4.68180771    -4.41560438
O       -2.32618907   -12.82503223   -12.32717695
H       -2.54624200   -12.51728923   -13.20643960
H       -1.91171330   -12.07196299   -11.90607315
O        8.75674223     3.62387102    10.65296888
H        8.26502190     3.33900763    11.42322586
H        8.89232569     4.56172937    10.78813801
O      -11.03513244    -5.60804519     4.19885453
H      -10.34999994    -6.23639468     3.97081455
H      -10.67220884    -4.75729453     3.95239635
O       -1.35337243    -5.89439462   -11.83224567
H       -1.21690992    -6.74248834   -11.40993431
H       -0.56651965    -5.39184093   -11.62121405
O       -4.23636201    -4.35293554   -14.52987346
H       -4.58260105    -3.60707235   -15.01981069
H       -4.44818933    -4.15940794   -13.61668776
O       -8.77841257    13.20699632    -7.60837182
H       -9.03346499    13.74259345    -6.85716224
H       -8.04299639    13.67796600    -8.00026778
O        0.68800879    -9.00025006    -5.97154249
H        0.64935161    -9.48558180    -5.14741230
H        1.60580471    -9.05286624    -6.23821464
O        1.20473043     4.67635324    -5.13070176
H        0.85563840     4.68766352    -6.02190246
H        0.67291025     4.02535193    -4.67288473
O        3.91245786     4.05251964    -1.23348458
H        4.75705295     4.32928417    -0.87810819
H        3.89504696     4.41367055    -2.11976824
O       -7.63462465    -0.70675465    -0.90811084
H       -8.36773890    -0.96741543    -0.35058837
H       -7.28318861    -1.53147756    -1.24360553
O        7.26385348    -3.64505990    -6.33967569
H        7.29389781    -2.69442664    -6.44749770
H        8.07633385    -3.95753360    -6.73775569
O      -13.39438730   -13.76396773    -2.64905622
H      -12.80410840   -14.32781682    -3.14893308
H      -13.06188602   -12.87843924    -2.79573290
O       -5.13839750    -2.11468873     5.65910211
H       -5.30730380    -3.04557385     5.80455114
H       -4.83257304    -2.06491658     4.75343883
O       -9.12779147    -4.53924132    13.33816092
H       -8.24108182    -4.41296597    13.67584775
H       -9.69787942    -4.19835024    14.02738139
O       -4.82605977    -7.09293853   -12.06782190
H       -4.30772087    -7.08649803   -12.87250517
H       -4.22492399    -6.77837030   -11.39260753
O      -10.25107678    -0.17682771     8.11958105
H      -10.71697973     0.45645105     7.57357344
H       -9.77565128     0.35819106     8.75515744
O      -11.97623163     0.82543083    -0.68967740
H      -11.50650341     1.52112485    -0.22968058
H      -12.86922081     0.87239856    -0.34821552
O       -4.99128651   -13.91447810    -5.84942930
H       -4.04175493   -14.01288596    -5.91969684
H       -5.23435019   -14.45973250    -5.10119836
O       -2.38058182    -6.21172783    -8.01521706
H       -1.71343191    -6.85904317    -8.24352762
H       -2.97909394    -6.67920677    -7.43256920
O        5.74256446    -1.08586670    -4.18383715
H        5.75772521    -0.45286138    -3.46598879
H        4.81341288    -1.20010298    -4.38348498
O        3.26129773    -4.81512338    12.57534030
H        3.35396307    -5.04371072    11.65046582
H        4.15919804    -4.69156918    12.88314097
O       -9.84942766    -3.41049636     3.11532708
H       -9.26812375    -4.08586557     2.76576444
H      -10.03247113    -2.84109935     2.36798915
O      -10.51019967    -8.62025687     6.04008880
H      -10.75737445    -8.94124447     5.17284982
H      -10.03809407    -7.80538776     5.86880983
O        1.86127316    -6.74391144     6.89118587
H        0.97447840    -6.84969288     6.54674838
H        1.98837956    -7.50072619     7.46329359
O        2.28272580   -14.22823188     2.37054640
H        2.14361041   -13.43440675     2.88699622
H        1.53340009   -14.78557223     2.58058108
O      -10.59417394     9.03840163    -1.84974501
H       -9.76866608     9.41237005    -2.15782982
H      -11.16763474     9.79428154    -1.72317437
O       -8.89670074    -0.75406775    -3.59921019
H       -9.64899853    -0.16225017    -3.60485194
H       -8.86268595    -1.09044541    -2.70370758
O       -1.44220130     0.50657808    -6.48951325
H       -1.36573120     0.04300222    -7.32346864
H       -2.09015201     1.19159656    -6.65425973
O       -6.45950246   -11.48924625    -6.41260205
H       -6.04297081   -11.09961033    -7.18131337
H       -5.96495355   -12.29315342    -6.25327067
O       -5.75740244    14.35918325     4.57566625
H       -5.33127840    13.69415108     4.03494232
H       -5.23883933    15.15133663     4.43489276
O       -9.08439824    10.51365232     0.77726032
H      -10.02268078    10.34397450     0.69319382
H       -8.73572236    10.37572360    -0.10343977
O      -10.80656132    -7.57429043    -8.49132076
H      -11.24463436    -7.28268484    -7.69176461
H      -10.13820619    -6.90892630    -8.65510064
O        5.93980648    -7.45328899     2.85924531
H        5.58696546    -7.18256802     3.70685679
H        6.29542270    -6.64976142     2.47962392
O      -11.37156923    13.57583008    -0.67284667
H      -11.67478442    12.96354965    -1.34322349
H      -11.20384939    14.38915327    -1.14887954
O       -7.28863720    -0.04191099   -14.41308620
H       -6.94877363    -0.79846457   -13.93522503
H       -6.51391643     0.48357663   -14.61284192
O       -5.23475198   -12.71424298    -9.26011802
H       -4.34458992   -12.72187305    -8.90828689
H       -5.15998584   -13.14519228   -10.11154304
O       -5.93537337     0.78713650     0.65025056
H       -6.10618770     0.22965936     1.40937739
H       -6.20470487     0.25868430    -0.10103545
O       10.08371607    -4.82046496     7.45616453
H       10.01914847    -5.43698547     8.18552406
H        9.17547468    -4.61583405     7.23377834
O       -1.93569091    -9.50924571     5.89102122
H       -1.38859703    -8.72702619     5.81993840
H       -1.64472933    -9.93304424     6.69846658
O       -0.95414604    -5.60791713    14.02033486
H       -0.32914089    -6.12491930    14.52857610
H       -0.62977406    -4.70955781    14.08330474
O        0.06962643    -8.52594155    13.05435992
H       -0.05050503    -8.77505529    13.97073464
H       -0.68283633    -8.90669932    12.60152975
O        4.77277405     1.41695977    -8.20972414
H        5.05798007     2.15153778    -8.75312502
H        4.15556231     1.80342933    -7.58849730
O        9.94985974    -0.25558616    -5.45246638
H       10.07491752    -0.84992945    -4.71263637
H       10.37892617    -0.69369392    -6.18744627
O       -9.20738018    -4.07578164    -2.71404163
H       -9.53795763    -4.03644871    -1.81659897
H       -8.30618622    -3.75920190    -2.65192433
O       14.10735736   -13.30944717    -1.42639881
H       14.15589456   -12.93378672    -0.54733384
H       14.95136114   -13.09727636    -1.82498759
O        0.36239029    -7.78500031    -1.41190098
H        0.77463461    -8.39951137    -2.01907692
H        1.08657777    -7.25609581    -1.07717068
O       -0.96087478    12.08371419    -3.76675139
H       -1.23456829    12.15177205    -2.85204278
H       -1.59188554    12.62017853    -4.24660895
O      -13.76240639     2.16800785    14.49557478
H      -13.03782250     2.74500766    14.73698991
H      -13.47671012     1.75126366    13.68259645
O      -12.44377678    -2.24297000    -3.47619025
H      -11.75163110    -2.29387231    -2.81696710
H      -12.37266930    -1.35676010    -3.83088392
O      -10.88957920    -4.64387464    -4.82159163
H      -11.54122143    -3.96441365    -4.64859738
H      -10.26136363    -4.56216066    -4.10402639
O      -12.51816995   -13.37716972    -5.51791327
H      -13.02052917   -12.58362320    -5.70271314
H      -13.02787698   -14.08226250    -5.91700568
O      -11.91599176     0.48918954    -3.41569790
H      -11.93344923     0.47420142    -2.45877447
H      -12.26670514     1.34881002    -3.64868849
O        0.76322515    -3.58918748    13.06159415
H        1.50500479    -4.10695550    12.74868669
H        1.10030461    -2.69489774    13.11502763
O       -5.43817473     0.38280011   -11.09342771
H       -4.79576395     0.29216329   -10.38963427
H       -5.09957633     1.09398454   -11.63730240
O       -6.92818345     2.66295529     2.30174898
H       -7.04741596     1.88356384     2.84448688
H       -6.69876814     2.32089908     1.43768994
O       -6.90934632   -14.55553862    -0.92890772
H       -6.49443189   -14.23676021    -1.73044262
H       -6.18092525   -14.71553383    -0.32887762
O       -2.63358958     7.82270792   -10.95643405
H       -3.15854243     7.58229721   -11.71988611
H       -1.73175750     7.63479898   -11.21647438
O      -11.07172997    12.59177875    -8.93828903
H      -11.30110550    13.50549164    -9.10783984
H      -10.23566075    12.63634246    -8.47435564
O      -12.83736660     6.49167584     2.83867953
H      -11.97775555     6.58798291     2.42877021
H      -12.90611757     7.24056140     3.43085820
O        4.04878642    -7.24333291    -9.00152318
H        4.98099275    -7.33367344    -8.80388259
H        3.69836696    -8.12999692    -8.91628830
O       -9.11519743     0.45713587   -10.65714274
H       -8.36968790     0.08121997   -11.12526092
H       -9.40846683    -0.24161056   -10.07235360
O        0.70006059    -4.00662136   -11.32142691
H        1.41341177    -4.45138863   -10.86366711
H        0.32492312    -3.41783027   -10.66657672
O       -8.18303435    -5.25167232     1.93675072
H       -7.23182016    -5.31910773     2.01967162
H       -8.51113623    -6.09730263     2.24251270
O       -5.87171403     4.12047927     7.07201073
H       -5.15436728     3.51801195     6.87534189
H       -5.53780188     4.66717936     7.78324454
O       -6.06297707     4.81266460   -13.37003122
H       -6.56394937     4.14473552   -13.83814377
H       -6.71927798     5.29942086   -12.87146397
O       -1.46355224   -15.02426154    -9.83619618
H       -0.55581764   -15.32065261    -9.90254432
H       -1.80758032   -15.10368529   -10.72589748
O       -6.82578058     1.74368352    -5.27856718
H       -6.79495870     2.67511984    -5.49698936
H       -7.15165004     1.71881668    -4.37888802
O       -3.08568398    -6.78627354   -14.16971454
H       -3.63926946    -6.06038082   -14.45755951
H       -2.21148987    -6.40455534   -14.09029343
O       -0.85240743     5.09003090     4.85804464
H       -1.69521827     5.10659223     5.31150629
H       -1.07136120     4.87012779     3.95254272
O       -6.26514850    -0.82277181    -4.50078927
H       -7.16470889    -0.90746804    -4.18479956
H       -6.26786767    -0.01860164    -5.01995667
O       10.86941068    -0.07001144     0.67171594
H       11.75034002    -0.26653341     0.35300845
H       10.79883135    -0.55290270     1.49516384
O       -0.18964320   -10.54518811    -8.21326074
H        0.21940260   -11.41054766    -8.20512285
H        0.10862648   -10.13112679    -7.40343343
O       -0.21476497     2.72248440    13.86129295
H       -0.11851340     3.62987423    13.57213699
H        0.45889439     2.61166562    14.53221330
O       -7.19710835    -2.41471274    11.78775233
H       -7.18758598    -3.05405444    12.50006081
H       -6.51104617    -1.78830536    12.01832624
O        3.85830401     3.02502188    14.57835873
H        4.23103449     2.25797757    14.14367856
H        4.14934271     3.76662528    14.04774331
O       12.51897973    -3.20838551    -2.36585819
H       12.03949258    -3.99059028    -2.09294865
H       13.44056326    -3.43820981    -2.24712978
O        4.79796357    -4.74276455    -6.13775764
H        5.68460610    -4.38681120    -6.19601638
H        4.28196471    -4.20045684    -6.73431391
O       -1.32806636    -3.55002083    -6.69427325
H       -2.09922003    -3.17395741    -6.26985581
H       -1.53575466    -4.47958002    -6.78923181
O      -10.57892067   -15.68101268    -5.84321668
H       -9.69173985   -15.60973178    -5.49099364
H      -10.83805183   -14.77776504    -6.02549830
O      -11.77466919    -0.37568770    -6.98529824
H      -12.08998408    -0.30936582    -7.88663601
H      -12.56724057    -0.49459794    -6.46192188
O       -1.38558451    -5.42059816     0.42192187
H       -1.03272301    -4.55251116     0.22661296
H       -1.24731178    -5.92219071    -0.38151912
O       13.78754163    -8.91189043     0.12396196
H       13.73725612    -9.15379231    -0.80080109
H       13.48428762    -8.00441494     0.15147704
O       -8.65393143    -3.12958949     5.81802311
H       -9.12688497    -3.00662240     4.99496425
H       -7.96764627    -2.46250530     5.80242773
O      -12.76745196   -13.15378489     0.06695538
H      -12.99261172   -13.60418490    -0.74709299
H      -12.01709038   -12.60530472    -0.16186520
O        5.42165176   -14.43967498    -0.59042340
H        6.28523333   -14.73707535    -0.30404648
H        5.40750327   -13.50594542    -0.38023115
O       -2.03846039     2.61426261   -10.28499899
H       -2.20286366     2.33148978    -9.38541968
H       -1.08503140     2.60418548   -10.36928101
O       -3.71726562    -2.39941217    -5.38173887
H       -3.43250269    -2.78617104    -4.55375367
H       -4.25191964    -1.64829500    -5.12444539
O       -9.72320485     1.00341268   -13.77069730
H       -8.81858381     0.71177110   -13.88400137
H      -10.20724317     0.56043494   -14.46762591
O       -9.00082204   -14.23540719    -4.11747707
H       -8.06590178   -14.08878351    -3.97375006
H       -9.43396135   -13.63582654    -3.50992030
O       -1.00849548    -6.39848996    -4.95989275
H       -1.94484819    -6.46313056    -5.14776784
H       -0.62542571    -7.16759453    -5.38175477
O       -1.08549655     0.36035790     4.92868983
H       -1.61326960    -0.07943800     4.26215624
H       -0.59105322     1.02214172     4.44516131
O        2.96463712   -10.86480571   -14.70124212
H        2.42660607   -10.07425669   -14.65897302
H        3.36982038   -10.92587695   -13.83618219
O       -8.87207572    -3.82142292   -11.84037348
H       -9.71765907    -3.42281111   -11.63463267
H       -8.23951726    -3.11101472   -11.73350049
O        5.81157475    -3.62804425     2.62654032
H        6.14756349    -4.33743357     2.07871717
H        6.25094713    -2.84322597     2.29905898
O        1.19330353    -4.85557199    -5.43411731
H        0.33768420    -5.27321306    -5.33551023
H        1.41584599    -4.97931864    -6.35682716
O       -3.07666647    -3.71655888   -11.89053759
H       -3.52107782    -3.88535716   -11.05973224
H       -2.48697745    -4.46210152   -12.00307598
O       -4.38768053     2.52661257    -2.63518113
H       -5.33844382     2.43794120    -2.70165221
H       -4.25442569     3.38146413    -2.22566458
O        1.85694885     4.90757651     0.95498287
H        2.65142895     4.45795820     0.66709991
H        1.68677741     5.55554154     0.27130542
O       -8.55449411   -11.75258353    -8.65350601
H       -7.85554963   -11.72774177    -7.99998375
H       -8.14205443   -11.43824154    -9.45806456
O        2.90390330    -4.98529761     9.74992672
H        2.23716853    -5.38694123     9.19281003
H        3.72519123    -5.12139954     9.27749234
O        6.12395645     1.16689681   -13.58972125
H        6.17645820     2.06457227   -13.91782821
H        5.53305167     1.22010829   -12.83856751
O       12.20740756    -2.51491411     1.54761236
H       12.47605695    -2.83244173     2.40972347
H       12.20282775    -3.29631576     0.99478116
O       13.48481806    -4.68499922    -5.33292523
H       14.24252463    -4.68071834    -4.74803697
H       13.79802889    -4.26594178    -6.13449973
O       -0.02286190    10.97608323    -6.13333034
H       -0.41904461    11.12959971    -5.27559856
H        0.17297357    10.03918051    -6.14300592
O       -8.50375625    -6.26667327    -5.27101801
H       -9.37752454    -5.97656785    -5.00910264
H       -8.59389451    -7.21036176    -5.40352832
O        3.00674348    -5.37134499   -10.67748162
H        3.76997103    -4.79367737   -10.68144076
H        3.32244389    -6.18339939   -10.28108187
O       -0.40178791    -4.30779512    -2.48541179
H        0.37053257    -3.78963060    -2.71181513
H       -0.25923691    -5.15125942    -2.91492202
O       -9.02806130     3.73983322    -4.49816411
H       -9.59190665     4.13514962    -3.83330682
H       -9.57750899     3.07604302    -4.91496340
O       -4.41858663   -10.77433141    -3.91794619
H       -4.25472625   -10.24212369    -4.69649392
H       -3.58701561   -10.76857325    -3.44393317
O       -6.58143431     7.85511710    -1.86527359
H       -5.83107048     8.32552905    -2.22845200
H       -7.34451386     8.29168076    -2.24389427
O       -7.00190409    -1.86070361   -10.72853498
H       -6.44823545    -1.08702036   -10.83387780
H       -7.09223798    -1.96398602    -9.78122068
O       -6.38190309     4.43442764    -3.41812220
H       -7.21981926     3.97870723    -3.49841703
H       -6.57607584     5.20031730    -2.87780579
O       -6.49961979    14.00268142   -10.21249010
H       -6.16897742    13.69214233   -11.05538567
H       -5.81057414    14.57908468    -9.88202494
O      -10.86204339    11.60837492    -5.09112120
H       -9.90550386    11.57323243    -5.08573838
H      -11.06796149    12.49470363    -5.38819189
O        2.89592414    -9.85066290    -8.69606175
H        3.76906288   -10.11591827    -8.98502574
H        2.32955645   -10.03181352    -9.44615771
O        9.91703872    -8.19149607    -6.42694691
H       10.01246089    -9.00534322    -6.92169864
H       10.67399788    -7.66466765    -6.68326020
O       -5.29813851    -3.76874204    -7.10260947
H       -4.87088896    -3.25028541    -6.42077929
H       -5.59641653    -4.55875403    -6.65189545
O        2.86894883    -4.30793948     6.08484508
H        2.28864290    -5.02577801     6.33819215
H        2.30867222    -3.53189521     6.09363524
O        1.45855416   -12.03649296     4.01349632
H        1.64364865   -11.10857320     3.86880078
H        1.27327474   -12.10100209     4.95037516
O       -3.29432449    -7.55535983     8.58265118
H       -2.85592848    -8.04334188     9.27972672
H       -3.40101187    -6.67295889     8.93792325
O        3.37899687    -6.98059779     2.09418047
H        3.18136575    -6.18118421     2.58214740
H        4.26522350    -7.21632417     2.36852929
O       -7.13377552    -5.94323373   -13.09662410
H       -6.42438679    -6.36447647   -12.61128500
H       -7.56724556    -5.38456422   -12.45146990
O       -7.43795692    -5.99449521    11.48111028
H       -8.18330658    -5.75367047    12.03128223
H       -7.42186873    -5.32845145    10.79382669
O       -1.44552168    -7.23411610     2.76611252
H       -2.21850528    -6.94302196     3.24984013
H       -1.27807866    -6.53267548     2.13668759
O       12.16047885    -2.15576625    -8.44478556
H       11.38457937    -1.60908808    -8.32087098
H       12.83862551    -1.73288598    -7.91798271
O       -9.50390375    -5.79152524     6.61829376
H      -10.45851337    -5.77021919     6.55122387
H       -9.21314759    -5.00636108     6.15438650
O        0.75516884    -2.01303338     6.51283518
H        0.46285269    -1.13895181     6.25444684
H        1.01873909    -1.91715648     7.42802379
O       -9.60613340    -9.70621829   -10.50514490
H       -8.89932466    -9.06083375   -10.49365437
H      -10.15334486    -9.47623204    -9.75421361
O        6.56344839     5.22914074     6.69658293
H        6.72477792     6.07065960     6.26990900
H        5.83475221     4.84763367     6.20700548
O        1.18714044    -2.82892694     9.32259220
H        2.02252430    -3.28347980     9.43097742
H        0.55131284    -3.38461927     9.77332621
O        5.39353417    -2.94917571     6.57224656
H        4.68430259    -3.58289426     6.68005756
H        5.06436775    -2.32897436     5.92168404
O        8.56196781    -4.38506803   -11.68282858
H        7.97372429    -3.65619485   -11.88017423
H        9.43977356    -4.00824184   -11.74358172
O       -7.10269332    10.30904143     8.66735069
H       -6.44683430    10.35560324     7.97171228
H       -7.93856981    10.43339509     8.21781925
O        3.44662511    -0.90446356     5.69271612
H        3.79811989    -0.03335238     5.87669599
H        2.58790438    -0.91097555     6.11554961
O        0.01369376    -0.39730061     8.90671791
H        0.86447619     0.02856420     8.80164519
H        0.21862777    -1.25332885     9.28281571
O        5.21796422     1.84343583     2.26892103
H        5.75890380     2.62331084     2.14477929
H        5.67229617     1.34145303     2.94555062
O        2.76951072    -6.61452127    -0.52514134
H        3.18150691    -5.77081035    -0.71126733
H        2.94021989    -6.76504286     0.40460781
O        2.10921715   -11.32839666   -11.28539808
H        2.62946460   -12.06626618   -10.96739962
H        1.63651334   -11.67624465   -12.04156258
O       -2.81882488    -2.57488188     8.51710244
H       -2.22792876    -2.49495990     7.76831267
H       -3.07550249    -1.67475595     8.71740660
O       -5.62240874   -10.88442559     1.73032817
H       -6.41293628   -11.05723349     1.21902055
H       -5.89322944   -11.00797025     2.64006699
O       -4.66033801    -5.76432902    -2.37761288
H       -4.31443807    -6.60841143    -2.66763008
H       -4.70143108    -5.83665907    -1.42403458
O       -3.43163986    -4.94199161     9.57964788
H       -3.28184706    -4.02150892     9.36399636
H       -4.34423595    -5.09971816     9.33773350
O       13.85688327    -8.41547269   -12.76118045
H       13.79644440    -8.24212688   -11.82174965
H       14.60500120    -9.00616087   -12.84858119
O       -2.11022155    -9.46000539    10.83482197
H       -2.55956860    -9.00581251    11.54758274
H       -2.73517701   -10.12277018    10.54087409
O        7.16815210    -6.24009737    14.50133193
H        7.83376470    -6.92632238    14.54915411
H        6.33582578    -6.70795876    14.56893721
O        2.92517919    -9.79455312     3.39759419
H        3.81750639    -9.95295835     3.08954904
H        2.71813911    -8.91214782     3.08981644
O        0.88691278     3.79066340     9.82847777
H        0.75311300     3.04330511    10.41138862
H        1.82398026     3.77826242     9.63358650
O       -2.61348133     2.23745719     3.33851902
H       -3.30908329     2.32763966     2.68718433
H       -1.99949375     2.94247867     3.13310282
O        6.61802559    -5.52358312    -1.50860687
H        5.70177370    -5.24805031    -1.48039337
H        7.03031029    -4.92273847    -2.12928301
O      -11.85259568    -2.83384705    10.61424796
H      -11.59378118    -3.02150842     9.71201179
H      -12.18387356    -3.66785340    10.94729483
O       -0.29286116    13.66002037    11.71908221
H        0.66284161    13.61839798    11.68544244
H       -0.48156573    14.26938098    12.43273625
O       -9.24726252     7.95339989   -14.91494836
H       -9.18249160     8.60835176   -14.21991266
H       -8.58295468     8.21399221   -15.55292844
O      -11.94448067     2.66306012   -13.56675843
H      -11.76645798     3.60355460   -13.56990741
H      -11.07894753     2.25490246   -13.58892957
O       -9.24873015    -7.46854327     3.29491725
H       -8.45549604    -7.92266491     3.57914433
H       -9.86987605    -8.17008522     3.09934497
O       -9.07818389    -9.40914962     8.22894640
H       -8.89796751   -10.33981944     8.36163998
H       -9.64915186    -9.38235558     7.46115118
O      -11.36667852    -2.85084476   -11.74299043
H      -12.25544739    -3.19209597   -11.64364583
H      -11.48166352    -1.90506096   -11.83520380
O       -2.81492426   -13.33416959    10.62069076
H       -3.19520914   -13.60730665    11.45556285
H       -3.37496792   -12.61630850    10.32529540
O      -11.45884602    -5.97664522    12.12678493
H      -11.37576551    -6.88182729    11.82682679
H      -10.57797055    -5.73756055    12.41510553
O        5.13987307   -11.79009410     0.01733179
H        5.73400845   -11.12722692    -0.33458027
H        4.28569403   -11.56761617    -0.35295673
O       -5.83056741    14.03644261     7.48961980
H       -5.13344333    14.62226581     7.78468091
H       -6.02602543    14.32579914     6.59838425
O       -4.67801064     1.29020328    11.19741451
H       -4.13617561     0.68957373    10.68566183
H       -4.19502701     2.11656046    11.18779773
O       -9.25458484    -9.06227016    12.95650726
H       -8.65026834    -8.87037157    12.23942403
H       -8.86748505    -8.63118058    13.71844385
O       -5.88212024    -5.46828277     8.43760557
H       -6.57248480    -4.84486452     8.66338932
H       -6.35087683    -6.25567016     8.16098271
O      -12.21678568    -6.48429181    -2.39572913
H      -12.99226986    -6.21567596    -1.90308154
H      -12.52266978    -7.19947941    -2.95355837
O       -4.75323617   -13.89518997   -11.59018371
H       -5.04733590   -14.34995438   -12.37944066
H       -3.86487914   -13.60509764   -11.79730708
O        0.58734870     9.89156565    11.33683113
H       -0.08096032     9.49334229    10.77914568
H        1.30737732    10.09574429    10.74008854
O       -7.84505716    -8.56866618    10.58338813
H       -8.09325511    -8.60639126     9.65969638
H       -7.74372155    -7.63466536    10.76670592
O       -0.63658921    -4.77446664     9.98645344
H       -1.53803337    -4.96406903     9.72629733
H       -0.19283524    -5.62177886     9.94935523
O        9.81189042    -9.56164050     2.12791877
H        8.88372224    -9.50248490     1.90156438
H       10.26581901    -9.54672360     1.28532861
O       -9.84773016    -4.09654073     0.05919197
H      -10.60382938    -4.65702451     0.23355870
H       -9.17547803    -4.40445831     0.66705354
O        1.34095896     2.19751920     3.64561085
H        1.86490998     2.66881378     2.99785427
H        1.60724602     1.28305900     3.55029251
O       -3.52759502   -14.20611609     7.39587693
H       -2.98886373   -14.27213867     8.18431936
H       -2.89924194   -14.22085793     6.67394415
O      -10.56789011   -13.61536818     7.58202869
H       -9.88586640   -13.10023934     8.01297856
H      -11.27413281   -12.99009588     7.41927843
O       -7.11194279     0.92745250    -7.94790983
H       -7.14833873    -0.01015023    -8.13714065
H       -7.22344079     0.98526805    -6.99898548
O       -5.45385661    -0.68320568    12.94824462
H       -5.03841915    -0.04171216    12.37193774
H       -5.32101708    -0.33518709    13.82998641
O      -13.17963273   -14.98897553    13.90154069
H      -12.39789970   -14.50242741    14.16306747
H      -13.91003662   -14.42941051    14.16541374
O       -2.20917666    -3.38040832     3.93592372
H       -2.66372182    -4.22235701     3.96318099
H       -2.29839458    -3.08877740     3.02860712
O      -11.88676725    12.34865963    13.58409051
H      -11.57204455    12.19022808    12.69410124
H      -12.06352777    13.28897424    13.61230392
O       -6.13870457     3.63918865    13.90621605
H       -6.13928262     3.40564146    14.83448714
H       -6.45713928     4.54163323    13.88560100
O       -4.08136163   -11.08576888     9.65663412
H       -4.79020512   -10.83029999    10.24698011
H       -4.50127487   -11.17248521     8.80083917
O       -6.73610287    -4.19720387    14.53275590
H       -5.90918798    -3.74791677    14.35787102
H       -6.64220190    -4.53455647    15.42360251
O       -7.52640667    -7.34264549     7.52658575
H       -7.92111019    -8.17957445     7.77151615
H       -8.26444506    -6.80309573     7.24300642
O       -8.95682683   -13.13606868    14.69668701
H       -9.62000031   -12.87941023    15.33743597
H       -9.43626291   -13.65238932    14.04877816
O       13.95227018   -15.67349836    12.32413092
H       14.26325430   -15.12712626    13.04593301
H       14.74203384   -15.88698157    11.82721027
O        3.88852160   -12.13904686     7.32164361
H        4.18084502   -13.02424730     7.53889705
H        4.54383783   -11.81474696     6.70388794
O       -1.92324375    -1.19505652   -11.71862224
H       -1.67651627    -1.14244704   -12.64198005
H       -2.34943229    -2.04778421   -11.63230501
O       -0.29258042   -13.97062789     9.32994315
H        0.21477863   -14.25315970    10.09085998
H       -1.18596231   -13.87381173     9.65968136
O       -5.72171855    -4.76756344     5.76491281
H       -6.67178204    -4.78938457     5.65030450
H       -5.57679504    -5.13329418     6.63753533
O       -6.77912280     1.53862660     8.61238435
H       -5.99672393     1.44714989     9.15618199
H       -7.05471279     2.44648334     8.73918404
O       -7.79165065    -7.67022024    -9.63790184
H       -8.20264067    -6.81224860    -9.74374943
H       -6.98433423    -7.49173663    -9.15559939
O        6.06107398    -6.01888918   -13.01853131
H        6.65534561    -6.25790766   -12.30723443
H        6.63754297    -5.82089703   -13.75657905
O      -10.06958594     3.20926790    -8.51533853
H       -9.60925942     4.04250783    -8.61555112
H       -9.57058417     2.59337108    -9.05190185
O      -14.05399770    13.58369452   -13.73291236
H      -14.12549564    14.06469112   -14.55738926
H      -14.19934842    12.66915201   -13.97522830
O       -8.04099414   -10.97868471     0.49756410
H       -8.62725630   -10.86763876    -0.25089921
H       -8.58144170   -11.40119750     1.16512026
O        0.34301395    -7.37097824    10.37257467
H       -0.41073171    -7.94278091    10.22717507
H        0.47442445    -7.38353679    11.32062815
O        1.16652085     1.24184091    -8.12788146
H        0.56375162     0.54610181    -8.39027090
H        0.95204445     1.41191100    -7.21065309
O      -13.38316592    -5.94440043    10.22004237
H      -12.67622113    -5.90146235    10.86395015
H      -12.93956443    -6.10331220     9.38685774
O        0.47604687   -15.46357104    -1.75404894
H        0.97880351   -16.25982747    -1.58245843
H        0.99419175   -14.76267013    -1.35845363
O        9.11557834     3.80756974     6.39637674
H        9.14621855     2.90022216     6.69971385
H        8.20857926     4.07795351     6.53947507
O       -0.53874547     2.56284212    -4.28537490
H       -0.91862261     2.55084193    -3.40686411
H       -0.79925942     1.72635585    -4.67093301
O       -9.88132475   -11.63949154    11.82085084
H      -10.80109784   -11.56624638    12.07557514
H       -9.43228243   -10.98119142    12.35116565
O      -10.32462499    -2.88108442     8.30645044
H      -10.32381131    -1.92475337     8.34721936
H       -9.80430846    -3.08864426     7.53029228
O        6.53001259   -13.40897991     9.26905065
H        6.28783773   -13.86786371     8.46468205
H        6.10654860   -13.90856440     9.96713763
O       -0.30016835     7.46360657    -4.87673255
H        0.10065683     7.74784696    -5.69818154
H       -0.02284700     6.55291698    -4.77688668
O        7.32779004     2.13411432     8.78301156
H        6.79097150     1.70046767     9.44634276
H        7.78922224     2.82338368     9.26073526
O       -5.22029608     1.64932089   -14.35992230
H       -4.35715603     1.54150732   -14.75941865
H       -5.05862748     2.17743820   -13.57813766
O       -5.30823880    12.16084193     9.96372137
H       -5.71697357    12.17088844     9.09823491
H       -4.68698907    12.88878386     9.94419776
O       -7.76712971    -3.81405267     9.41854338
H       -8.61080859    -3.46301196     9.13357281
H       -7.53481888    -3.28859651    10.18415382
O      -14.77480567    -6.80073201     5.36721660
H      -15.22711251    -7.59099353     5.66240656
H      -15.01452468    -6.13287190     6.00965689
O       -3.66542233    -5.73809391     3.79916863
H       -4.49512588    -6.07875940     3.46484707
H       -3.79461021    -5.67805045     4.74570819
O       -0.56714234     5.32047016   -13.95138068
H       -1.45658119     5.59320249   -14.17665264
H       -0.19626096     5.00653501   -14.77607673
O       -4.19780852    -5.64603439     0.34466505
H       -3.25590775    -5.57170182     0.49805818
H       -4.37872744    -6.58354258     0.41233026
O      -11.39408966    -8.46296402    11.00945939
H      -10.57298940    -8.95068735    11.07389657
H      -11.80586414    -8.79083229    10.20997453
O        4.90930951     0.10932627    -1.86686463
H        5.55141645     0.53952941    -1.30219147
H        4.13474818     0.00585824    -1.31407085
O      -13.90753437    -1.43798564    14.64434310
H      -13.79543442    -0.51624370    14.41184095
H      -14.30889765    -1.41924761    15.51312861
O       -3.63740630    -2.52536387    13.91858396
H       -4.00802637    -1.71722157    13.56393110
H       -2.93076140    -2.75102401    13.31363576
O       13.52218452   -14.37982151     2.71657797
H       13.32722909   -15.24264259     3.08231562
H       13.31667016   -13.76764429     3.42314343
O        2.02050783     1.01616093     7.65811673
H        1.61802632     1.88460537     7.65142777
H        2.95055588     1.18148777     7.50348973
O       11.97118256    -3.70838528   -13.13603887
H       12.34820802    -3.12488856   -12.47754421
H       12.69978670    -4.26678511   -13.40725370
O        0.81116217   -12.33602858   -13.49272924
H        1.47933586   -13.02027020   -13.45286472
H        0.59369553   -12.26682460   -14.42232642
O      -14.02778518   -12.17394720     8.97176137
H      -14.35146861   -13.02035676     8.66345675
H      -13.54069077   -11.81810979     8.22855841
O       -1.03523622     4.13897013     2.22600720
H       -1.40747303     4.90515567     1.78939373
H       -0.16621121     4.03977669     1.83717814
O       -4.45049351    -8.44768574     0.91113550
H       -4.65848283    -9.16542633     1.50931670
H       -4.68964156    -8.77956463     0.04574745
O        0.99493478    12.09550565     5.97193829
H        0.45762230    11.41850240     5.56060662
H        0.54922061    12.28724734     6.79704790
O        0.59231410   -11.40297390    11.10724453
H       -0.21731901   -10.90932303    11.23776230
H        0.60765318   -11.59527273    10.16968508
O       -5.54027946    -7.54329540    13.24249920
H       -6.18892838    -7.27895116    12.59011240
H       -4.70601429    -7.23210843    12.89122134
O       -6.99326701    -8.52793417     4.70306435
H       -6.87040853    -9.45139841     4.48317474
H       -6.39300746    -8.37298245     5.43238615
O        1.93082185    14.32862291    -9.37935335
H        1.89347429    13.74234589    -8.62363100
H        1.50551633    13.83956295   -10.08374487
O       -5.10525193    11.59461294    -9.57597258
H       -5.88395643    11.38234657   -10.09055409
H       -4.48475200    11.94705853   -10.21393324
O        3.44566725    13.72242096    13.30603945
H        2.98032152    12.88742265    13.35566830
H        3.85030208    13.82323595    14.16763033
O      -13.78743312    -9.52329532    -5.26456467
H      -14.40755202    -9.69440176    -5.97337140
H      -12.98999728    -9.23396639    -5.70797948
O       -3.76738987     7.36287256     5.77475186
H       -3.26169029     6.55294203     5.84192573
H       -4.61696054     7.08748164     5.43033732
O       -3.85133284    10.08107723    -7.63937616
H       -4.17447867    10.65155548    -6.94197873
H       -4.41620401    10.27339151    -8.38781963
O      -12.30709073     3.17028474    -4.03991740
H      -11.81165641     3.82972093    -3.55420081
H      -11.69442394     2.84885924    -4.70139824
O       -0.99174522    -0.04056247    -9.19211678
H       -0.57574958    -0.90105333    -9.24441344
H       -1.61737896    -0.03203481    -9.91650725
O      -12.85008034   -10.94830882    -2.93596179
H      -13.17931788   -10.51061426    -3.72098278
H      -13.09686100   -10.36767665    -2.21610247
O       -5.21081845    12.46445942    -6.42063989
H       -5.55176848    12.31314452    -7.30216625
H       -5.98123587    12.69565941    -5.90176089
O       -3.12644664     4.74788804     6.28853460
H       -3.50462018     3.92752099     5.97196782
H       -2.80947836     4.54239851     7.16804413
O       13.08648044    10.26464388    -2.80062288
H       13.06438449    10.85887770    -2.05053636
H       12.16569088    10.10999127    -3.01148067
O       -1.12844775    -8.86805741   -12.51749976
H       -1.96774785    -8.46836664   -12.74565426
H       -1.30363478    -9.34892221   -11.70860520
O       -9.91862893    13.86585658     3.25221131
H       -9.87860424    13.93146967     4.20632074
H      -10.68181141    14.38919897     3.00747246
O       -4.39329264     4.27484785    -8.90320565
H       -5.14688339     3.95791352    -9.40108662
H       -4.77187458     4.83374688    -8.22457509
O       -1.88832878   -10.51106520   -10.37462407
H       -1.22047565   -10.74117644    -9.72867294
H       -2.64993285   -11.03680582   -10.13010842
O      -11.60791432     8.97157772     4.37064698
H      -10.79671921     8.58862799     4.70462879
H      -11.35398413     9.84215145     4.06429311
O      -14.92849138     5.86234896   -10.26968500
H      -14.13329601     5.76296502   -10.79315325
H      -15.56941061     5.29378304   -10.69651892
O        0.85885674    10.19272772   -10.28571444
H        0.71854280     9.30191911   -10.60665659
H       -0.00988852    10.49000281   -10.01526840
O       -0.74357082     4.74637605    -1.81278822
H       -0.40659654     5.62561497    -1.98489023
H        0.01338872     4.25849055    -1.48842448
O        2.71624944     5.83411065     6.46592340
H        2.43746730     6.54552953     7.04246095
H        2.17461559     5.08874197     6.72532686
O       -2.13333645     9.36282402     6.84009756
H       -2.69604944     8.68642036     6.46318374
H       -1.75574057     9.81027653     6.08283971
O      -10.26486570     6.80650177     1.57383936
H       -9.82753113     7.57146278     1.94774439
H       -9.76164231     6.05979727     1.89853991
O       -9.17658615     5.79659186    -8.12330732
H       -8.51601002     5.65971744    -7.44423707
H       -9.94055420     6.12831660    -7.65156229
O        2.47220363    12.02794627    -7.30488267
H        1.77702999    11.54749045    -6.85529657
H        2.91578033    11.36690247    -7.83638305
O      -12.66309291     3.08045798    -9.44707562
H      -13.16019571     3.01402089    -8.63178010
H      -11.74823324     3.11759532    -9.16799776
O       -0.69443112    13.15048402    -7.58168018
H       -0.46864162    12.38198022    -7.05760684
H       -0.71546204    12.82863751    -8.48290400
O        9.36765966     9.12673854    -0.84327210
H        9.56373753     8.22420415    -1.09470201
H        9.53529408     9.63819126    -1.63481911
O       -8.43888439     3.32132177   -12.54293744
H       -8.55411014     3.88966017   -13.30447952
H       -8.92363872     2.52550909   -12.76186041
O       -9.13568872    11.73224513    14.90847394
H       -9.63016610    12.31063417    14.32779323
H       -9.73932887    11.53920370    15.62582004
O        1.43978177     3.41472377     6.21226897
H        1.47853983     2.81425175     5.46784770
H        0.64688262     3.93002332     6.06391410
O       -7.71647594     7.47247738   -11.63840882
H       -7.11542666     8.19720645   -11.81085992
H       -7.45838190     7.14663135   -10.77617702
O       -4.62077088     7.84410291     2.09879084
H       -5.08129577     7.74301748     2.93181569
H       -4.35798961     6.95508147     1.86042403
O        0.59103844     9.40892185    -1.02182393
H        1.20220903     9.73539742    -1.68221477
H        0.24257410     8.59991803    -1.39641341
O       -5.76949191   -10.23261387    -9.12621246
H       -5.93572945    -9.81161365    -9.96963155
H       -5.65143966   -11.15832152    -9.33919337
O      -10.66945351     4.50586488    -2.40718578
H      -10.99870509     5.30712732    -1.99999571
H      -10.07967560     4.12953604    -1.75390907
O      -11.71487448    -0.11150657   -11.79788177
H      -11.32661304     0.41492522   -12.49670541
H      -11.16665238     0.06324525   -11.03293328
O      -10.80402893     2.17995372    -6.10931826
H      -10.36681345     2.59156885    -6.85473590
H      -10.86294624     1.25453346    -6.34671655
O       -3.74630062    13.76553449    -0.79980387
H       -3.02488378    13.21306454    -0.49886110
H       -3.80341208    14.46268539    -0.14638919
O       -3.69403721    13.78058883   -14.21440764
H       -3.66065146    13.35483030   -15.07105629
H       -4.40847614    14.41329069   -14.28855077
O       -4.81934966    -1.28982863     2.94817653
H       -4.84475825    -2.15686349     2.54340894
H       -4.23293057    -0.78079377     2.38850876
O       -8.22360449     9.24983511    -7.94256768
H       -7.64325565     8.62813194    -8.38178544
H       -8.93518432     9.39551840    -8.56599561
O      -14.17235899     2.16191982   -11.91766009
H      -13.80941605     2.32209961   -11.04654201
H      -13.41411541     2.18450942   -12.50143080
O       -8.05650728    10.43814943    -1.97196740
H       -8.22403449    11.36846527    -1.82137219
H       -7.25126027    10.25771821    -1.48693784
O       -5.01266182     9.87362087    -3.44509034
H       -4.80702888    10.70207374    -3.01194743
H       -5.49705172    10.12732910    -4.23073047
O       -2.09578229   -13.52951039    -5.39128191
H       -1.43783241   -14.20333365    -5.22012112
H       -2.31461445   -13.18258604    -4.52641901
O       -4.03219608     6.63237469   -13.09191418
H       -4.72270316     5.96947817   -13.09207947
H       -4.43505072     7.39864384   -13.50029093
O      -14.34258987    -0.88837277   -12.52284952
H      -14.76771932    -0.04047220   -12.65154071
H      -13.40664576    -0.68815145   -12.51052514
O        0.91643235     8.29312589    -7.07254941
H        1.02538679     8.14669441    -8.01218689
H        1.77928538     8.11206825    -6.69981004
O       -7.23886860    -0.03305016     3.17737334
H       -7.63274554     0.16668521     4.02660746
H       -6.38033358    -0.39844181     3.39100478
O      -10.58022056     6.99782908    -4.09248221
H      -10.94314114     7.57021742    -3.41654426
H       -9.94512616     7.54492466    -4.55462222
O       -3.35105946     7.60993584    -3.70008889
H       -3.24918518     7.41493976    -4.63166283
H       -3.84223576     8.43123867    -3.67912801
O      -11.67320067     6.70296429    -0.86322883
H      -11.17267048     7.47841350    -1.11696077
H      -11.48984541     6.59369390     0.06986960
O        5.17605416   -12.64515958   -13.57357316
H        5.48931229   -13.03347340   -14.39046579
H        4.26560893   -12.93256615   -13.50487962
O       13.21645496   -13.20100302     5.20653772
H       12.30950687   -13.20750078     5.51253574
H       13.53031165   -12.31872383     5.40480336
O        4.28905622    13.27153853    -5.66883297
H        3.69733822    13.72035724    -5.06495929
H        3.72968453    13.00278971    -6.39760538
O      -13.96195821   -15.62018868    10.71689752
H      -13.08773094   -15.58927671    10.32830649
H      -13.80703643   -15.57328399    11.66031209
O      -14.17447564     1.05760050     0.98947745
H      -15.04891197     0.78786029     1.27024990
H      -14.31963132     1.86300930     0.49301159
O       -8.23075317     8.55678599    -5.01951032
H       -8.21173524     9.47749069    -4.75841067
H       -8.41938277     8.57724548    -5.95771719
O       -4.54793547   -14.14175322     0.66342568
H       -4.49966981   -14.10839854     1.61882598
H       -4.02068326   -13.39853399     0.37040328
O       -3.66445458     3.62662320    10.34966750
H       -3.01985621     3.50905391     9.65188368
H       -3.22314854     4.18110449    10.99312016
O      -11.59520071     3.74354585     3.20975138
H      -12.50962299     3.87389261     3.46089571
H      -11.09550199     4.24417267     3.85465900
O       11.35714082    -7.11008843    -0.23150643
H       11.16109477    -6.32143862     0.27428925
H       10.55129449    -7.62533925    -0.19462633
O      -11.82506200     6.31971328    -6.84074918
H      -11.48923681     6.78486259    -6.07453158
H      -12.77383099     6.43866326    -6.79692957
O        0.44310022     7.56573092     4.93468676
H        1.18786520     7.38626389     4.36079779
H       -0.10766633     6.78605436     4.86402897
O       -7.86438585     5.85876879    -5.69853967
H       -8.38760432     6.55089570    -5.29426918
H       -8.22079292     5.04684883    -5.33799586
O       -2.52543301    10.38255254    14.24058031
H       -3.15210066    10.26597943    14.95467429
H       -3.06398109    10.40228706    13.44949981
O       -2.89583250    13.26557256    -5.33715358
H       -3.59724221    12.99346444    -5.92894194
H       -2.16777977    13.49182462    -5.91592908
O       -3.70424180    10.43657670     1.52518196
H       -3.01156241    10.22560273     0.89914913
H       -4.00008517     9.58662932     1.85121572
O       -4.05417423     2.81080114   -12.21066644
H       -4.64067122     3.51736565   -11.94044485
H       -3.33697654     2.83880416   -11.57736150
O       -1.30377520   -15.20199634   -13.17596248
H       -2.06009666   -15.72685839   -13.43812565
H       -1.68122842   -14.43943640   -12.73748415
O      -11.79306478   -15.01438808   -10.43104748
H      -10.97236477   -15.49154015   -10.55355972
H      -11.53359585   -14.19469747   -10.01031594
O       -5.49478963     5.86423466    -7.07664109
H       -6.37910807     5.70832884    -6.74512017
H       -4.96623085     6.00857145    -6.29176889
O       13.88310683     8.30070214    -4.55316697
H       13.01748788     7.89505936    -4.50428317
H       13.83233188     9.04728357    -3.95628347
O       -5.12963439     0.29356731     6.79484785
H       -5.99692263     0.48281165     7.15293937
H       -5.22302437    -0.56423049     6.38048918
O       -6.96754716     5.68089017    -0.31425355
H       -6.28180091     5.54208032     0.33898129
H       -6.72969483     6.50420216    -0.74065182
O       10.52773605     9.55431845    -6.38851742
H        9.65005061     9.70337043    -6.74020427
H       11.11626474     9.77609869    -7.11009857
O        9.53716519     5.21410774     4.00783698
H       10.27050703     4.69393535     3.67941304
H        9.37680241     4.87389799     4.88804886
O       -6.71499582     4.11235722    10.26830722
H       -6.85203141     3.33338278    10.80742866
H       -5.76552873     4.23337906    10.25841712
O       -1.98279659   -14.33469115    -2.44191328
H       -1.29316190   -14.94185541    -2.17360858
H       -2.75678903   -14.62122385    -1.95707664
O       14.90011303    11.23676849    -6.00792322
H       14.25709703    10.62539182    -6.36706226
H       15.44332959    10.70141082    -5.42952907
O       -1.72584968    10.42364765    -9.42509066
H       -2.26413903    10.29981494    -8.64333501
H       -1.89057364     9.64427039    -9.95581559
O       -1.01219946     7.54984269    -2.29908838
H       -1.88645136     7.59066810    -2.68670772
H       -0.41569723     7.62476132    -3.04394014
O       -6.91104717     7.60782208     9.53986865
H       -6.34871093     7.29579922     8.83088942
H       -6.91436086     8.56001900     9.44218604
O       13.79807020    13.38698645     4.63819135
H       14.27968590    13.14606621     5.42954184
H       12.87653620    13.30823657     4.88477883
O       -7.83016381   -13.48121016     4.80051248
H       -7.14222594   -13.97441657     4.35361118
H       -8.44201352   -14.14917594     5.10985615
O        1.70049813    -3.33647989   -13.78964589
H        0.96757858    -2.77207065   -14.03561946
H        1.48059706    -3.64612187   -12.91101217
O       -3.51152866     0.21090603     8.89181001
H       -2.76258950     0.70119072     8.55277769
H       -4.15339100     0.23203518     8.18202262
O       -0.52024889    -2.77517020    -9.13584656
H       -0.54791519    -3.10015855    -8.23593045
H       -1.37143753    -3.01330091    -9.50327482
O       -4.02406035     4.13330310    -5.09670001
H       -4.84079230     4.04036041    -4.60624877
H       -3.33663072     4.05400997    -4.43534914
O        4.07107871    -0.89953865    -9.40676110
H        4.54546080    -0.25204076    -8.88528246
H        3.69656130    -1.49943578    -8.76170917
O       -8.22296668    12.92860174    -0.79450287
H       -7.62829391    13.53333626    -0.35077740
H       -8.94200564    12.80165834    -0.17555199
O       -5.20919944     7.00449737    11.71855586
H       -5.81135699     7.17203531    10.99359436
H       -4.72828697     7.82516211    11.82562787
O       12.39712484   -15.32017000    -2.16372840
H       12.70883323   -15.90217200    -1.47066029
H       12.89986520   -14.51437964    -2.04462389
O       -3.02315998     2.75372943    -7.23987094
H       -3.30366139     3.15117830    -6.41550136
H       -3.39560307     3.31811291    -7.91735841
O        9.72386029     3.89983208    -2.52004648
H        9.70982551     3.18337639    -1.88543942
H        9.38492534     3.51232327    -3.32701109
O      -13.52462687    14.12136889     0.94537900
H      -13.90981222    14.93693446     0.62488422
H      -12.98858344    13.80680250     0.21741109
O       -8.14666531     4.97092366     2.94491600
H       -7.83975330     4.14563137     2.56951022
H       -8.56849054     4.71876041     3.76632273
O       10.31168700    -0.70870391   -13.65987719
H       10.25961021    -1.65588730   -13.78779702
H        9.43573904    -0.38885175   -13.87584390
O        3.89459784    11.92531586   -11.67916210
H        4.73714881    11.85771864   -11.22997357
H        3.30005702    12.28557210   -11.02115868
O       -6.63898022   -11.45796764   -13.16143942
H       -6.44932215   -10.57691255   -12.83894354
H       -7.34273732   -11.77450865   -12.59508301
O       -3.77526161    13.17896527   -11.52015218
H       -2.98129916    13.60290093   -11.19437000
H       -3.78243940    13.37112753   -12.45783763
O       -8.84694655     7.84268543     5.06191466
H       -8.45880077     7.89233823     4.18835339
H       -8.19333165     8.23932987     5.63784227
O       -4.74036476    12.77621959    -3.13383589
H       -4.14398101    13.12365007    -3.79704803
H       -4.47574249    13.20965156    -2.32245211
O        2.49912260     6.74831142    12.41555559
H        2.65356508     7.47975689    13.01335733
H        2.77997645     7.07389023    11.56036473
O      -13.31977122    12.81441536    -7.35681467
H      -12.61220000    12.73051562    -7.99598262
H      -14.03871784    12.30151666    -7.72597931
O       10.98421339     7.15033180    -1.82177746
H       11.03877743     7.28808143    -2.76744107
H       11.47569767     6.34346202    -1.66803672
O        4.33266835    11.08509232    -0.97643099
H        4.84547197    11.23464527    -0.18213998
H        4.37245132    10.13853522    -1.11310146
O      -11.60108017     9.09747627    -5.92069977
H      -11.43818244     9.99723004    -5.63761086
H      -12.22884395     9.18162449    -6.63837907
O      -13.50669233    11.08342418   -14.66567795
H      -12.59974202    10.86214412   -14.87712090
H      -13.90259032    10.25133416   -14.40659719
O       14.69775853    12.24162827     0.32534667
H       15.23225078    11.48561588     0.08245751
H       15.32590472    12.95653286     0.42818459
O        7.41181098    -0.97851055    -6.29596274
H        6.88882902    -0.78944674    -5.51687572
H        8.30110236    -0.71686907    -6.05734917
O      -13.46735228     3.43967433    -1.36562962
H      -14.07344825     3.85202997    -1.98113133
H      -12.82690390     2.99505868    -1.92094452
O      -11.06065477    11.28640799     3.17753316
H      -11.46448370    11.15385743     2.31987099
H      -10.67840578    12.16268122     3.12996427
O       -1.66315001     6.37513523     0.64364507
H       -2.61461027     6.27059040     0.64870452
H       -1.43582100     6.45869602    -0.28240621
O       -1.98168830     5.74689268    -8.61170510
H       -1.64695421     5.87752210    -9.49890344
H       -2.88957595     5.47028762    -8.73604936
O      -11.52750569    -9.41678858   -13.08829961
H      -11.11910808    -8.80687852   -13.70267162
H      -10.92558275    -9.44740807   -12.34467129
O        1.99698499     7.97104439   -14.85438070
H        2.63476573     8.65888374   -14.66373813
H        1.34741907     8.39484892   -15.41534923
O       -7.77031196     6.80449472    13.08953803
H       -8.26807372     6.56276248    12.30849347
H       -6.87140119     6.91019405    12.77805943
O        3.23060339    -2.97757292    -7.56240082
H        2.76566246    -3.66126954    -8.04470851
H        2.55010946    -2.53922178    -7.05151126
O      -14.89725075   -12.11660484    -9.09000152
H      -14.87632434   -13.04877703    -9.30644769
H      -14.68288158   -12.08182341    -8.15776337
O        0.36935265     5.21501897    13.13317394
H       -0.24340330     5.94573687    13.21571692
H        1.21261967     5.62863162    12.94862810
O        5.00967613   -15.26268335    11.27578668
H        4.52019649   -15.90691958    11.78725634
H        5.14266611   -14.52983201    11.87701411
O       11.43208549     7.54644028     7.10456151
H       10.99277068     8.39606712     7.06756705
H       12.11023695     7.59738803     6.43095423
O       -6.33183446   -10.68852218    11.24724526
H       -6.62906822   -10.77606863    12.15290500
H       -6.65655949    -9.83188394    10.96983503
O       -9.90258246   -14.59261063    12.57386205
H       -9.96886578   -13.78109105    12.07059835
H      -10.21554194   -15.27178368    11.97635709
O       -2.35017150     6.35711191     9.53998238
H       -2.54027404     6.24404876    10.47127696
H       -1.98321373     5.51651531     9.26617367
O      -10.22591745    10.81394642   -12.92295724
H      -10.09734897    10.12055104   -12.27572865
H      -11.03859117    11.24360171   -12.65614341
O       -5.73372958    10.80952505    -0.34240539
H       -4.92938161    10.47624994     0.05531799
H       -5.71875942    11.74955701    -0.16255081
O        8.39369071    13.74930673     1.99541032
H        8.41113375    12.82468247     1.74843345
H        8.27761588    14.21654343     1.16809638
O        1.30997204     7.91267586     7.53611717
H        0.96220611     7.80910162     6.65036151
H        0.53549141     8.03429238     8.08531752
O       -7.98386374     0.37349108     5.78526811
H       -8.43309353    -0.09842266     6.48649694
H       -8.04796499     1.29485818     6.03667523
O        1.46180592    12.29477025     1.02157761
H        1.26852931    12.83014098     1.79115814
H        1.91116282    12.89017073     0.42173723
O       -0.79756974     8.56762056     9.10459709
H       -1.38030051     7.87895218     9.42458547
H       -1.24916656     8.92891117     8.34186434
O       -1.43123707     1.36861287     7.41487634
H       -0.87396263     0.79697355     7.94299143
H       -1.28335235     1.08201922     6.51364050
O       -1.50237784     3.85638357     8.55561884
H       -1.51259875     3.02434834     8.08249649
H       -0.58203947     3.99349799     8.78013782
O       -9.47861514     5.22094579   -14.34307097
H      -10.39248760     5.19399349   -14.05962336
H       -9.26877687     6.15376826   -14.38825937
O      -11.04724844     8.08244466    12.91852857
H      -11.25569025     7.15232589    12.83099033
H      -10.24768556     8.10073786    13.44445291
O        8.36815213     9.75950037    11.26314400
H        8.99976918    10.10708404    10.63347954
H        7.71658386    10.45427473    11.35790283
O        6.16529358    11.56230355    11.26384342
H        5.79380470    11.72028225    10.39593179
H        6.57522231    12.39318953    11.50429877
O       -0.32687073    10.10992152     4.58589144
H       -0.19681032    10.30700840     3.65827465
H        0.19615513     9.32314447     4.73970194
O       -3.23483952    13.92244192    10.08237148
H       -3.44716834    14.52826876    10.79238709
H       -2.34146358    13.63521236    10.27107882
O       -9.34785131     9.89004445     7.07576862
H       -8.87817334    10.30575085     6.35270386
H       -9.55001233     9.01058542     6.75652799
O       -6.55393106   -13.06484309     9.93017010
H       -6.32361994   -13.81574693    10.47728259
H       -6.24069900   -12.30516365    10.42109237
O      -11.42657671     5.38940792    12.88524295
H      -12.24817882     5.14107882    12.46152786
H      -10.75610014     4.88817761    12.42106497
O        9.56119829     1.38135925     7.34900776
H       10.01436360     0.54057548     7.41190216
H        8.82600340     1.30380399     7.95704189
O       -3.27998480     4.44913405    14.78461249
H       -3.99364845     4.19394623    14.19997994
H       -2.74318819     3.66084443    14.86634821
O       -4.28928791     5.49080047     0.70918211
H       -4.55343877     4.65391508     1.09138494
H       -4.25933600     5.32547257    -0.23315616
O       -7.16521949     1.97928531    11.97790495
H       -6.83294036     2.55426157    12.66727040
H       -6.39656297     1.49290931    11.67984891
O       -0.26450680    12.02856046    14.44121363
H       -0.79378526    11.23468753    14.51777691
H       -0.37079232    12.30087750    13.52974302
O       -0.39244468    13.17830626     8.48893275
H        0.32883399    12.73822831     8.93873308
H       -0.13434159    14.09976350     8.46588494
O       -6.94530943    10.00747140    14.10262694
H       -7.54461391    10.62991386    14.51449023
H       -7.23767595     9.95917124    13.19245071
O        2.27791156    10.16408586     9.14449434
H        3.14556246    10.40573488     8.82042719
H        2.04671133     9.37864470     8.64865114
O        1.42213278     9.43326740     1.54007185
H        1.09672992     9.30690769     0.64879297
H        1.66127789    10.35928544     1.57921315
O      -15.05621248    10.07666679     8.00723591
H      -15.33453399     9.17316568     8.15708492
H      -14.14549229    10.00305239     7.72192643
O       -6.21212571     9.65877867   -12.28945142
H       -5.44270595    10.16062484   -12.55847837
H       -6.74979509    10.28514594   -11.80488199
O       11.76299030   -12.02530012     7.67348383
H       11.85753231   -12.84163979     8.16428237
H       12.31564825   -11.39890770     8.14085261
O       -9.46972788     1.38284898    10.44387407
H       -9.47232788     0.47527158    10.74805882
H       -8.74076134     1.79057309    10.91142160
O       -5.06803389   -12.05010712     6.86334413
H       -5.88188775   -12.38778003     7.23731037
H       -4.55377782   -12.83198370     6.66224327
O       -3.62102451    13.35733774    12.87116381
H       -4.51894143    13.26863954    13.19070988
H       -3.53052458    12.66649721    12.21482474
O       -6.47557550    -2.93697784    -2.25660638
H       -5.99580132    -2.50304592    -2.96212157
H       -5.90313470    -3.65346920    -1.98241028
O      -10.06413310     6.39027446   -10.64622280
H       -9.21257405     6.58237219   -11.03887722
H       -9.85450108     5.96977677    -9.81227558
O      -13.68338609     8.23032929   -12.75069579
H      -13.05845213     7.59859386   -13.10650436
H      -13.83886856     7.93488482   -11.85360626
O      -13.66757582     5.27925151     7.33032811
H      -13.30697949     4.75509547     6.61516199
H      -13.42463175     6.17952916     7.11420271
O       -7.53393175    10.58988862     5.10922525
H       -7.55442964    11.01689159     4.25279069
H       -6.62250988    10.66343426     5.39230310
O       -4.11861012   -13.44685743    13.12938674
H       -5.01281409   -13.78243825    13.19276366
H       -4.06022416   -12.78734979    13.82067004
O       -2.82160764     5.55695954    12.14219376
H       -3.60114489     6.09368262    12.28530862
H       -2.73683737     5.03869265    12.94247201
O        6.73859078    10.21994213     4.22991286
H        6.52351399     9.93775546     3.34089964
H        6.59639087     9.44225719     4.76955826
O      -13.05940969    10.42267492    11.42965239
H      -13.89974022    10.84444893    11.25025578
H      -13.15743747    10.05658872    12.30863094
O       11.52720534     7.80254309   -11.09808443
H       12.25851110     7.55395102   -11.66343894
H       11.27090089     8.67200606   -11.40561332
O       -2.87462041    12.71620109     7.14556832
H       -2.07589875    12.53754946     7.64191413
H       -2.77567039    13.62096270     6.84917808
O       -8.02875311    14.03082567     9.36229395
H       -7.70873995    13.54546730    10.12272191
H       -7.32138096    13.96538684     8.72075343
O        0.88095504   -13.53064328     6.70643273
H        0.45645223   -13.84700492     7.50389403
H        1.77885885   -13.85673304     6.76698077
O       -6.09913515     6.04641258     4.78537611
H       -6.89041717     5.83373284     4.29053075
H       -6.13970511     5.48169286     5.55717762
O        4.37212297     3.73806801     5.32464119
H        4.11525273     3.72632166     4.40262625
H        3.89851281     4.48226618     5.69625167
O       -0.38804894   -12.22421844    13.70922433
H       -0.73268408   -13.11388273    13.63204969
H       -0.05977944   -12.01727390    12.83421294
O        2.23384730     0.05769688    10.91460463
H        3.03114797     0.57394622    10.79615589
H        1.52879223     0.70493735    10.92906039
O       -1.89342108   -14.09531671     5.02919733
H       -0.97915650   -13.82686534     5.12022479
H       -1.84840218   -14.98983862     4.69150558
O       -6.68728942   -14.35666691    13.12946169
H       -7.46172309   -13.92122423    13.48565546
H       -6.93066283   -15.28138306    13.08585802
O       -4.84468980     6.45885460     8.20987622
H       -4.46048345     6.82894454     7.41511162
H       -4.15957826     6.54925654     8.87220659
O        3.48224698    -7.53220598   -13.30108477
H        4.39978951    -7.38807076   -13.06962722
H        3.35721136    -7.03347587   -14.10846710
O        0.08698568     1.66086109    11.44880126
H       -0.05663453     2.05111917    12.31095189
H       -0.62763023     1.03206607    11.34794113
O       -7.68225902    10.80998075    11.33209723
H       -8.62015915    10.62898873    11.27031468
H       -7.35058434    10.66280394    10.44634177
O       -0.50660681     5.36034444   -11.20025465
H       -0.43862142     5.18953976   -12.13963508
H       -0.07772149     4.61029171   -10.78829575
O       -7.76915319    11.98628702     2.67621113
H       -8.28246878    11.26263997     2.31694257
H       -8.41537564    12.66448241     2.87288196
O       10.17948582   -12.54603069    10.42112974
H        9.84947431   -12.99083938     9.64044447
H       10.50521198   -13.25175055    10.97978331
O        0.83156750    13.09818233   -11.71025647
H        0.62589021    12.16356535   -11.73074546
H        0.30650247    13.47499606   -12.41633719
O       -5.93349905   -14.46161516   -13.93800747
H       -6.74424467   -14.96661419   -13.87556268
H       -6.21868241   -13.54791882   -13.93017775
O       -6.92813262    13.58978724    -4.44100476
H       -6.08218813    13.34004829    -4.06919804
H       -7.23592601    14.30186021    -3.88024888
O       -6.50748341    12.94142615    12.77803629
H       -6.85378046    12.32168339    12.13598557
H       -7.03491033    12.79356842    13.56301450
O       -1.84068236    -0.36771488    11.35929998
H       -1.80196784    -1.28269382    11.63777184
H       -1.74681909    -0.40240757    10.40734517
O       -9.42467475   -15.41771886     5.92172157
H      -10.04828670   -14.88525811     6.41550851
H       -9.70834322   -16.31967385     6.07085654
O       -0.30912368    -7.77647606    -9.63963231
H        0.45834458    -8.05820365   -10.13748157
H       -0.65168374    -8.58129737    -9.25085586
O       -2.71412834    -9.29947974    -7.13538605
H       -1.93016546    -9.80105945    -7.35910876
H       -3.36730352    -9.57564028    -7.77829304
O       -4.22606333    -9.39340121    14.97708966
H       -3.72063579    -8.72983684    15.44661833
H       -4.62178725    -8.92024687    14.24513378
O        9.98283423    -0.47656537    -8.55721206
H        9.05549341    -0.53968492    -8.78587507
H       10.30407677     0.27078101    -9.06170038
O        4.44673222    -8.09664284    -2.24829741
H        4.41764860    -7.62826503    -3.08256848
H        3.74471005    -7.70505446    -1.72862899
O       15.04052580    -2.67429406     5.13071744
H       14.52682713    -1.95855590     5.50496925
H       14.39332470    -3.34369896     4.90877224
O        8.53590799    -7.54852992    -0.47482032
H        7.88048468    -6.95868947    -0.84729903
H        8.06872104    -8.37338618    -0.34222937
O       12.50506623   -11.66446094    -4.34242417
H       12.47425786   -11.12251850    -5.13082831
H       12.93108771   -12.47400048    -4.62417458
O        8.90717125    -7.72085385    -3.83060773
H        8.13463177    -7.33907899    -4.24733613
H        9.51753752    -7.87461684    -4.55174698
O        9.11813342   -14.30701139    -4.06267201
H        8.19680496   -14.05681668    -3.99347432
H        9.19297924   -14.71034996    -4.92751185
O        7.88034711     6.19989574    14.93153234
H        8.56957600     5.94525223    15.54500775
H        8.34192623     6.37635890    14.11175352
O      -14.94355099    -8.93880055     2.55138020
H      -14.21217689    -8.56732825     3.04466725
H      -15.36615407    -8.18313139     2.14321037
O        4.46496139    -3.57374936   -13.31204914
H        3.53970185    -3.66792352   -13.53845111
H        4.68211109    -4.38253900   -12.84843597
O        3.73665546   -10.72984022    -2.45001968
H        4.26238948   -11.08492241    -3.16678478
H        3.94402647    -9.79542313    -2.44033338
O       13.28549457     7.70451867    -0.14267004
H       12.42052629     7.66985054    -0.55115485
H       13.89301988     7.48097419    -0.84777480
O       12.79014415   -12.84559278   -11.02009095
H       13.59444603   -13.25836747   -11.33465000
H       12.12712771   -13.08850141   -11.66633893
O        0.89544690    -8.62916682   -14.36708261
H        0.18356917    -8.70453883   -13.73164496
H        1.66969278    -8.43630403   -13.83833021
O        4.55997692     1.58066820    11.55315335
H        5.03743574     0.91918710    11.05244617
H        4.58074658     1.26034041    12.45492415
O       10.91126963   -10.19599282    -0.19813713
H       11.73843034    -9.93936178    -0.60578589
H       10.67701112   -11.01861994    -0.62783402
O       10.50113981    -8.66642244    -9.50281651
H        9.92772630    -9.41519937    -9.33922583
H       10.66128243    -8.68839477   -10.44626943
O      -14.43214422     7.24658638    -1.77806777
H      -14.97663369     6.46160514    -1.71833907
H      -13.71389469     7.08762268    -1.16563000
O       -0.19607915    -4.33726161     5.47232274
H       -0.93887716    -4.19086183     4.88661797
H       -0.02959707    -3.48140283     5.86731807
O        3.51231217     8.17700588    -5.89915226
H        4.19122452     8.81931763    -5.69240245
H        3.99409004     7.40887362    -6.20590096
O        1.79995790    -8.58183263   -11.15594836
H        2.44079127    -8.25010525   -11.78485328
H        1.84599236    -9.53368875   -11.24585168
O       -9.38615207   -11.77148227     2.95112730
H       -8.76854065   -12.14600132     3.57923833
H       -9.83132784   -12.52903458     2.57143678
O       10.36797503    -9.96733068     4.72078998
H       11.31107648   -10.10879794     4.80312176
H       10.22039816    -9.87514846     3.77953796
O       -4.49670964    -8.45778548     5.94469442
H       -3.71378813    -9.00838683     5.95488815
H       -4.43857105    -7.94300562     6.74958786
O       -9.50317330    -6.74801575    -1.66616506
H      -10.43979033    -6.59598316    -1.79212725
H       -9.07913552    -6.01141255    -2.10643718
O       14.52522192   -14.91271465   -11.65335165
H       15.31753112   -14.70992716   -12.15069983
H       14.41480733   -15.85829753   -11.75291811
O        4.13206655    -4.31549476    -1.19397903
H        3.85013341    -4.29097821    -2.10838839
H        3.80711641    -3.49620746    -0.82060579
O        8.56002172     1.04188272     2.77966975
H        8.49599588     1.99667605     2.75725927
H        7.85973925     0.76823651     3.37208352
O      -13.68761027     9.70692733    -3.90931333
H      -13.03587398     9.29222456    -4.47455070
H      -14.43601080     9.11046197    -3.92822269
O      -14.36392213   -12.15799881   -12.94059827
H      -14.35597574   -11.27322159   -13.30575299
H      -15.28729546   -12.33530764   -12.76122397
O       10.50648814     7.36648237    -8.65793910
H       11.01736396     6.85033217    -8.03437937
H       11.12475293     7.57874509    -9.35717084
O        4.90348793    -3.46992024   -10.14687370
H        5.20760553    -3.50464476    -9.23993460
H        4.49578216    -2.60793191   -10.23044386
O        3.07298417    -8.63985442    12.25417232
H        2.12502809    -8.77052933    12.23103833
H        3.36793997    -8.86545128    11.37193710
O       10.57560670    -4.52936407     0.45757602
H       10.11384152    -4.82887656     1.24070885
H        9.94970135    -3.95675703     0.01418508
O      -13.28387601    -1.08140643    -9.29640418
H      -13.49419043    -0.82654669   -10.19476169
H      -13.24400614    -2.03745275    -9.32125760
O       11.78165625   -11.91033212     2.83044818
H       11.33398286   -11.33689273     2.20836486
H       11.16001515   -12.61980015     2.99308064
O        6.66403531     3.87549269   -13.79239828
H        7.59756956     3.67810487   -13.71634768
H        6.49444582     4.50665924   -13.09304140
O        4.91291726    -7.91665464    14.20741152
H        4.47376229    -7.82700711    13.36163490
H        4.35608939    -7.43508273    14.81918195
O       14.25085416     8.13390792    -9.18027822
H       14.68352390     8.37360221    -9.99977525
H       14.23138882     7.17695667    -9.19014054
O        6.29000556   -14.84926709    -6.43313931
H        6.33222982   -14.51441512    -5.53741440
H        5.72044012   -15.61644160    -6.37595245
O        9.20841454   -11.21648856    14.26166495
H        9.00023145   -10.97797456    13.35833626
H        8.42487819   -10.98129143    14.75864075
O       12.07598735   -14.99411692     8.36128289
H       11.37734999   -14.92560155     7.71055765
H       12.24342650   -15.93362297     8.43560891
O       12.05885655     4.71121008    -1.45121961
H       11.36209316     4.33162898    -1.98663610
H       12.44552375     3.96360717    -0.99535755
O        8.37243820   -10.51440100    -3.18156116
H        8.81043772    -9.66668799    -3.25752774
H        9.06028696   -11.11507853    -2.89471201
O       10.03629018   -14.58811184     5.14858217
H       10.07405155   -14.21994980     4.26582363
H        9.59255215   -13.91849035     5.66909679
O        7.58337949     8.30502880     1.24806459
H        8.06469677     8.32170187     2.07528133
H        8.26156596     8.22448962     0.57738702
O       11.40229981    -8.15950423     8.95054852
H       11.32077103    -8.84113731     9.61760267
H       11.90803760    -7.46690798     9.37572093
O      -14.77395471    -3.80494706    -3.39288008
H      -14.55659601    -3.96729785    -2.47493168
H      -14.20482436    -3.07938947    -3.64956798
O       10.72121970     3.49794337    -6.81455738
H        9.94347164     3.32154758    -6.28519519
H       11.34968653     2.82663141    -6.54884786
O        1.72722548    -6.05889647    -7.86339254
H        0.96553555    -6.41733769    -8.31900222
H        2.47834700    -6.46840296    -8.29275572
O        3.37612189    10.12596351    -8.95079699
H        3.94827334     9.37720521    -9.11883140
H        2.56464557     9.91646125    -9.41323276
O      -10.15642912    10.21152750    -9.77336546
H      -10.71255045    10.95203091    -9.53125886
H      -10.74972014     9.46051130    -9.78793513
O        8.31463889     7.52757094    -4.52653134
H        7.82321618     8.24571395    -4.92528715
H        7.64765896     6.98457877    -4.10637765
O       10.74658657    10.84454480     1.05622716
H       10.59592242    10.01508770     0.60286959
H        9.87382821    11.22408604     1.15856556
O      -14.93361290    -9.25627526    -7.76616460
H      -15.45922001    -9.81448478    -8.33920137
H      -14.49483453    -8.64769498    -8.36058485
O       -9.60982100   -13.97687830    -0.86413860
H       -8.79743275   -14.47405228    -0.95940253
H       -9.59237550   -13.34808429    -1.58562706
O        5.95900609    -4.19341305    13.11353477
H        6.23186100    -4.94990727    13.63266727
H        6.63659048    -4.10537431    12.44319126
O       -2.89361863   -11.80344862   -14.72255355
H       -3.71315347   -11.31421311   -14.79496285
H       -2.46605619   -11.68224011   -15.57033342
O        9.51201802   -13.59936645     2.62461199
H        9.64067579   -13.06250718     1.84265218
H        8.70126866   -14.07928092     2.45549836
O       -6.37641131   -11.19393806     4.42412462
H       -5.74673001   -11.09576332     5.13833399
H       -6.76739635   -12.05609571     4.56571110
O       12.75828314    -8.42361273    13.46239801
H       12.62957111    -7.47542716    13.48707990
H       12.00790137    -8.75489986    12.96903416
O        6.30158459   -13.91600917    -3.89723136
H        5.67832722   -13.94873214    -3.17148257
H        6.31871607   -12.99503676    -4.15751619
O        7.21198119    -9.36549558     1.40249671
H        6.84445119    -8.58605167     1.81917494
H        6.75845116    -9.42455209     0.56163127
O       13.03025646   -14.07192112    -5.68964396
H       12.66715607   -14.79923683    -5.18427101
H       12.58270816   -14.11964295    -6.53442499
O      -10.81679472     3.60931023     0.59384125
H      -11.53455012     3.91764106     0.04067659
H      -11.18279407     3.59895429     1.47824449
O        6.53595105     0.46288743     4.56525377
H        5.91883203     0.60979059     5.28206297
H        6.82130399    -0.44401473     4.67631240
O        9.65415179    -2.83349004     3.06617785
H       10.40527882    -3.39677299     2.87975799
H       10.03740117    -1.97657135     3.25337328
O      -12.28340687   -11.54009066     6.80827207
H      -12.46208260   -12.08742125     6.04359170
H      -11.62790320   -10.91161530     6.50567413
O       14.90858933     6.82090502     8.77025291
H       15.49661396     6.43528569     8.12082500
H       14.20520718     7.21408326     8.25363286
O        7.94466393    14.15651078    -8.26096376
H        7.59661044    14.78827107    -7.63170264
H        8.58099656    13.64538566    -7.76090002
O       -2.84887791    -8.16186860    -2.81469561
H       -1.92706008    -7.90689211    -2.85304578
H       -2.86444711    -8.91832450    -2.22838176
O        7.27722922    -3.29556769    -3.48229749
H        6.80059389    -2.46630425    -3.51934830
H        7.57582175    -3.44106698    -4.38001922
O       13.05704070    -6.69244776     3.71313492
H       13.97525430    -6.59118283     3.96385598
H       12.62841230    -7.02591976     4.50136457
O       10.95591453     5.43092972    13.94050202
H       10.23036386     5.71549424    13.38477627
H       11.57180284     6.16350712    13.92488829
O      -12.31217900    -6.68233497    -6.32083548
H      -11.78231722    -6.05349585    -5.83089702
H      -13.21446266    -6.39291352    -6.18536861
O      -12.99474041    -7.27124443     3.41187308
H      -12.17850269    -6.86309642     3.70066891
H      -13.60871485    -7.11371948     4.12912696
O       12.54867232    -9.66268851    -2.38748452
H       12.71342837   -10.33366498    -3.04996310
H       12.31701682    -8.88140749    -2.88964739
O       -8.91952033   -12.14676456   -11.70143747
H       -9.15126238   -11.36696111   -11.19702291
H       -9.65413461   -12.27092631   -12.30240135
O        5.25705344   -12.38239937    -7.79983968
H        5.68818674   -13.03741198    -7.25091854
H        4.44936348   -12.17098847    -7.33167922
O        1.89628224    14.01102159    -4.37495452
H        1.36748183    13.48403523    -3.77588244
H        1.30835305    14.20786028    -5.10421829
O       -9.12068569    -5.39799680    -9.65333871
H       -9.11751625    -4.79278794    -8.91175660
H       -9.05789014    -4.83365900   -10.42393031
O        7.03043144    12.21909972     6.37728251
H        7.08970598    11.58519733     5.66251952
H        7.68790973    12.88175031     6.16550827
O       11.10208889    12.80333140     5.57229533
H       10.52085214    12.08146880     5.33290013
H       10.53875833    13.57718711     5.56614067
O        1.00758344     0.35716591   -14.33607868
H        0.17219206    -0.10102897   -14.24436967
H        1.54960849    -0.23423557   -14.85827115
O        7.17695497    -7.81491198    -6.37136769
H        8.11083454    -8.01741322    -6.31574355
H        7.07420640    -7.38799970    -7.22190898
O        9.42017830    -4.69561659    -7.79140457
H        9.93236984    -4.39343386    -7.04135306
H       10.07425316    -4.93211255    -8.44904246
O        5.45785345    11.89582367     1.49205368
H        5.23932066    12.70469703     1.95487023
H        5.24657211    11.19915136     2.11353557
O        2.21350549     8.89461022    -3.38785069
H        2.36277892     8.45503572    -4.22494301
H        3.03733207     9.34575223    -3.20342590
O       12.17908613    -7.69150155    -4.30359200
H       11.84389532    -6.98957541    -3.74575810
H       12.67801879    -7.23966754    -4.98413890
O        9.46767198    -7.41602004   -14.82667389
H        9.88537660    -6.68328222   -15.27927744
H        9.78594227    -7.35463639   -13.92602528
O       12.68932587     2.21824703     5.41197743
H       12.14946795     2.25416411     6.20159459
H       13.21539640     3.01726607     5.44438457
O        5.56535498    -9.90281210    -9.06127626
H        5.45655785   -10.72926507    -8.59077596
H        6.51249397    -9.80569078    -9.15990204
O      -10.84044031     1.60717799     5.91921999
H      -11.56180614     2.19474679     5.69421756
H      -10.07437530     2.17831532     5.97559725
O        8.06546410    10.00434044    -7.24366377
H        7.62413793    10.74494400    -7.65955970
H        7.78792146     9.24282473    -7.75287467
O        0.07813205   -12.48191653    -3.00204236
H        0.95235337   -12.82494439    -3.18724716
H       -0.50122974   -13.23805637    -3.09598009
O      -13.67435655    -8.82143666    -0.88419562
H      -14.45750571    -9.11166092    -0.41656421
H      -13.43295309    -7.99797654    -0.46008520
O      -13.74986008     2.69362911    -6.84540867
H      -13.20083785     2.86448656    -6.08015435
H      -14.51215507     2.23228944    -6.49568892
O       -4.13320263     2.41276013     5.61762890
H       -3.67527360     2.14738237     4.82006543
H       -4.51374229     1.60256047     5.95674233
O       10.33114128    -2.03960799    -3.39747688
H        9.89141089    -1.50100210    -2.73962224
H       11.13733868    -2.32940274    -2.97051480
O       12.22300664    12.23354427    -0.74012254
H       11.69463045    11.73308503    -0.11835812
H       13.02519646    12.44102381    -0.26087772
O        9.81495443   -13.49900194    -9.10377199
H        9.21625560   -14.20522399    -8.86078644
H       10.67684781   -13.80860130    -8.82534807
O        4.48969166    -0.51010271     1.02968151
H        5.34548184    -0.92296799     1.14542818
H        4.57495845     0.34259219     1.45614703
O       12.79138219    -1.97827825   -11.18587386
H       12.56068683    -2.20355984   -10.28461934
H       13.20744369    -1.11879679   -11.11941857
O       -9.73944883    -1.11092076     1.39880071
H       -9.05687054    -0.81087358     1.99904268
H      -10.47646224    -0.52171622     1.55967669
O        7.80337916    -1.17759060    14.28046554
H        8.30173842    -0.38590779    14.48321717
H        7.12187820    -0.88391204    13.67586551
O        9.54992843   -11.85295320    -6.65895513
H        9.54508622   -12.26496918    -7.52292922
H       10.38956618   -11.39535609    -6.61599939
O       12.88786631     0.37904199   -13.27873758
H       12.08031929    -0.13378965   -13.24552049
H       13.51649387    -0.19154906   -13.72087454
O        6.46825412    -9.65555633    -1.23454912
H        5.89253365    -8.97710581    -1.58737016
H        6.98241422    -9.94899769    -1.98672158
O      -10.54564065    -4.78172124   -13.94400306
H      -11.06965905    -4.11380314   -13.50182439
H       -9.68337813    -4.72138962   -13.53279107
O        3.03554247     1.51480756    -3.69490824
H        2.84487584     0.62189336    -3.98227966
H        3.22534947     1.43081160    -2.76048337
O       10.52015403    -3.70399623    -5.56031102
H       10.44162009    -3.22584597    -4.73481929
H       11.40365172    -4.07183952    -5.54146983
O       12.26597830   -10.62591928    -6.88810904
H       12.35793338    -9.76043241    -6.48972658
H       12.71154152   -10.55028064    -7.73190052
O        9.12851812    -6.63427501     9.39899044
H        8.36868976    -7.18246925     9.20309305
H        9.88116967    -7.16578731     9.13967950
O        1.88892190     2.76854505   -13.26439735
H        1.23022019     2.15671502   -13.59304293
H        2.39005651     3.02102027   -14.03986638
O        7.84027320    -2.03248153     4.94954143
H        8.45240827    -2.40577540     4.31536937
H        7.19284450    -2.72273251     5.09314334
O        8.28634823   -15.12635678    -0.76367138
H        8.76052269   -15.66495139    -1.39715877
H        8.92908491   -14.48151779    -0.46819874
O       -6.50761579     3.27861382   -10.35662367
H       -6.73225487     2.48769819    -9.86649959
H       -7.16862224     3.32890882   -11.04711098
O      -14.07141433    -3.46580423   -11.45642437
H      -14.31335016    -2.56983393   -11.69080893
H      -14.57753942    -4.01538760   -12.05477824
O        1.21880742    -9.94453569    -3.23390833
H        2.02136709   -10.15088122    -2.75479316
H        0.69302562   -10.74231891    -3.17622576
O       10.32823121   -13.11013462     0.03890995
H       11.25539597   -13.30058309     0.18148184
H       10.28243469   -12.80530086    -0.86729693
O       11.10157317    -5.79170625    -2.61855872
H       11.30319947    -6.22834821    -1.79095828
H       10.17397584    -5.97540066    -2.76705591
O        8.11669655    -7.11405978   -11.48031910
H        8.55140093    -6.27111368   -11.60957011
H        8.37425291    -7.38424611   -10.59890210
O        3.45327068   -13.90105323   -10.43185451
H        3.40783146   -14.52000225    -9.70310954
H        4.34969076   -13.56633004   -10.40688891
O       12.99641380    -6.42590845    10.40145929
H       13.81907561    -6.16046155    10.81255216
H       12.48564698    -5.61845595    10.34341137
O       14.54105999     4.88916326    -2.53236567
H       13.64913172     4.95213416    -2.19070725
H       14.43109435     4.60229215    -3.43892200
O        4.95208614    -7.25652417    -4.96302589
H        4.65967370    -6.42084554    -5.32685008
H        5.86364322    -7.33492851    -5.24435898
O        7.79902704    -4.30719979    11.09953479
H        8.08332670    -5.04501804    10.56006303
H        8.60641196    -3.83723009    11.30807715
O        7.37014707     2.15338092    -1.28637705
H        7.55491468     2.90061041    -0.71739474
H        6.60032238     2.41925280    -1.78928254
O        3.60916250     3.29401010     9.69636280
H        3.85997834     2.79874786    10.47613109
H        4.25428751     3.99906157     9.64206734
O      -13.97082571    -3.79261241    -8.52343120
H      -13.93175808    -3.72424492    -9.47738689
H      -14.04088709    -4.73187392    -8.35281155
O        3.58047885    -9.36493089    -6.01860170
H        3.43509555    -9.17081066    -6.94456762
H        4.13385894    -8.64865036    -5.70724253
O        2.63642044   -13.52582229    -3.42371971
H        2.81510758   -13.20412241    -2.54008407
H        2.48383369   -14.46406517    -3.31125001
O        8.15734180    -9.51300811   -12.77688643
H        8.10757411    -8.80818084   -12.13115154
H        7.77179885    -9.13990370   -13.56959166
O        4.47494673    13.31442452   -14.12916410
H        5.41309425    13.14134631   -14.05071027
H        4.18353504    13.46937876   -13.23066521
O        8.09562016   -11.03753999    11.62001614
H        8.63092826   -11.74785288    11.26627514
H        7.75050328   -10.58960546    10.84769441
O       14.43302613     5.67095053     1.81209597
H       14.02005876     6.39929518     1.34819526
H       15.28061025     6.01537993     2.09352341
O       -7.01326997   -14.69579182    -7.96258816
H       -6.28924290   -14.58218906    -7.34686820
H       -7.20858487   -13.81037001    -8.26936521
O       11.10224144    -9.41994256   -12.11497557
H       11.81305094    -9.13881952   -12.69112793
H       10.35080457    -9.53085353   -12.69744723
O       10.49461778     5.24132043   -13.49976926
H       10.60727700     5.53388777   -14.40417188
H       11.22105976     4.63600197   -13.35109692
O       13.38697929   -10.21356888     4.29063031
H       13.71637875    -9.56728572     3.66609375
H       12.91194210   -10.84685604     3.75256070
O       -1.23333740   -14.84380572    13.79033266
H       -2.18646042   -14.78686827    13.85776033
H       -0.94334212   -15.07031165    14.67397833
O        5.93607159   -11.31644622     2.70911019
H        5.53126226   -11.66810509     1.91620585
H        6.53530318   -10.64026036     2.39299940
O        4.58656697    -2.15971548    14.27219368
H        4.49972220    -2.45160156    15.17965847
H        5.05365029    -2.87157140    13.83478522
O       14.39839832    -5.85828867   -13.77992368
H       14.86036475    -5.79059283   -14.61552893
H       14.22423378    -6.79387690   -13.67709751
O        8.80057566     1.16904423    14.73959420
H        8.49178445     1.76179844    15.42481117
H        9.66452883     1.50592772    14.50226260
O      -12.34515075     0.77572135    12.61767253
H      -12.52619981     0.66261850    11.68458045
H      -11.47629431     0.39366626    12.74158480
O        6.44382071    -2.37864524     9.23798430
H        6.67480310    -3.15564093     9.74705863
H        6.23011875    -2.71638458     8.36821682
O        9.39380037     0.79124611    11.49684238
H        9.44618651     1.63448694    11.04691743
H        9.36934709     1.01655351    12.42682650
O       14.23374589    -5.25241232     7.50184549
H       13.35707588    -5.11651597     7.14238238
H       14.08202547    -5.63120661     8.36771364
O       12.54986301    -3.97622080     3.81662609
H       12.74367548    -4.90379208     3.95183001
H       12.21736800    -3.67480414     4.66210046
O       13.10631644    -2.55956848     8.97340697
H       13.57851897    -3.20736971     9.49648458
H       12.50231910    -2.14679716     9.59069045
O      -14.02346291    -1.66525097    11.77928615
H      -14.22282534    -1.76710197    12.70993799
H      -13.12269863    -1.97688436    11.69130771
O        9.09491976   -13.85959664    13.13575466
H        9.94145199   -14.20201525    12.84876244
H        9.30960562   -13.05843444    13.61354225
O        6.81478315    -2.28184764   -12.59724979
H        6.70521150    -1.60625278   -13.26642652
H        5.96597240    -2.72272304   -12.56008752
O      -14.18562826   -11.13355133    11.59735464
H      -14.43481961   -11.74451672    10.90391624
H      -14.72777952   -10.36013393    11.44201830
O       13.09005627    10.14540066   -14.78582893
H       12.42757579    10.65497573   -15.25239588
H       13.72495849    10.79548686   -14.48496523
O      -12.03005284    -5.31343203     7.90226363
H      -12.42518060    -4.67417271     7.30942855
H      -11.25932242    -4.86896394     8.25532820
O        6.26593162   -10.59104720     9.45248582
H        5.31080791   -10.54137157     9.49125263
H        6.44884704   -11.49297908     9.18925076
O       11.60856925   -10.04624208    10.91547067
H       10.98197396   -10.75467800    11.06287742
H       12.31635125   -10.45214605    10.41495250
O       13.84026009    12.51519795   -12.02154515
H       13.79588906    12.06934610   -11.17568512
H       14.64534257    13.03119796   -11.97890664
O      -12.33163349    -8.52364523     8.39914781
H      -11.85938431    -7.90601127     7.84081024
H      -12.52879666    -9.26377950     7.82507482
O        7.46110773     8.84706935   -14.15186232
H        6.97103158     8.72260034   -13.33911102
H        7.42911615     7.99380355   -14.58446591
O       11.96187385    -7.84029645     5.90758720
H       12.24766677    -7.91164168     6.81833641
H       11.34168139    -8.56042958     5.79356335
O      -11.72360036     3.05443391     9.80573072
H      -12.32149916     2.32625304     9.63690684
H      -10.98052180     2.65493338    10.25790925
O       -9.78705480    -0.37603757    13.70537218
H       -9.73695612    -0.55620714    12.76661721
H       -8.93492254     0.00174698    13.92304463
O        4.59211479     3.63487289   -10.11430167
H        4.49535107     2.94218006   -10.76778870
H        4.62611901     4.44365984   -10.62512378
O       11.98295111    -5.04594287    -9.41652683
H       12.01896357    -4.11857894    -9.18215297
H       12.75912269    -5.18676667    -9.95870593
O        7.23777606    -8.25652125     8.24295829
H        7.43720215    -8.50988001     7.34169782
H        6.88627348    -9.05162007     8.64357738
O        8.07519091    11.20540349     0.95616696
H        7.17508922    11.52626370     1.01182242
H        8.01615917    10.41762047     0.41566255
O       11.13720574    -0.67571426     7.83931806
H       11.95767720    -1.15107769     7.70859683
H       10.84990780    -0.92953457     8.71639673
O      -13.17735009   -10.77321231   -10.80031921
H      -13.36472693   -11.18907983   -11.64185114
H      -13.64658775   -11.30695789   -10.15909887
O       11.74763064    13.27537299   -13.73572998
H       12.25025640    13.15518380   -12.93002919
H       10.90726090    13.62869434   -13.44388317
O        9.30832804     7.96346032     3.36930413
H        9.02194991     7.08958238     3.63492936
H       10.19189885     7.83222320     3.02534005
O       12.51241579    12.42065305    13.37659877
H       11.61890328    12.72076300    13.54333585
H       12.95065778    13.17684351    12.98627609
O       -8.79115699     5.86836563    10.41975105
H       -8.32296845     6.64234916    10.10673214
H       -8.12870772     5.17763314    10.43652721
O        9.21757698     2.83513290   -13.20504056
H        9.69098169     3.66373998   -13.13067558
H        9.48810009     2.33428077   -12.43549768
O       10.31973875    -0.48161238     4.25886673
H        9.99544909    -0.43388858     5.15819454
H        9.77770951     0.14147067     3.77492079
O       12.91797966   -12.69641898   -14.19187832
H       12.12504152   -13.15197808   -13.90912954
H       12.69178733   -11.76765373   -14.14223967
O        2.64636946    -9.73045172     6.85767263
H        3.04360729   -10.55283919     7.14422595
H        3.30425033    -9.33184905     6.28798806
O        3.64084061   -11.87423898    12.69064292
H        4.59351823   -11.95853033    12.65150006
H        3.47825996   -11.35096290    13.47548783
O       14.26916319    -3.90642860    11.29223723
H       14.22568880    -4.18439456    12.20715622
H       14.66332653    -3.03475651    11.32471606
O        5.14025223    -9.06677125     5.72589412
H        5.12175663    -9.98427919     5.45373803
H        6.01815868    -8.76491739     5.49266384
O       14.45779850   -12.45635029     1.07342484
H       14.10415112   -13.03169610     1.75176294
H       14.35051745   -11.57357696     1.42759129
O       11.15720825    -3.22547194    12.58540766
H       10.43691352    -3.01752807    13.18052672
H       11.94263327    -3.16611695    13.12929769
O        2.89855685    -7.97830170     9.16910616
H        3.10485502    -8.90993673     9.09341542
H        2.07469834    -7.95370415     9.65581343
O        6.57363268     0.07098718    10.44607503
H        7.51860188     0.08556489    10.59790566
H        6.42022837    -0.74278494     9.96599804
O       14.84616042   -13.06177115    13.67911474
H       14.41802383   -12.82382433    14.50149678
H       14.86700973   -12.24819412    13.17524018
O        9.05458828   -10.90400734    -9.91234036
H        8.57519748   -11.15255507   -10.70268227
H        9.29560312   -11.73652453    -9.50606602
O       13.80082440   -10.68498545     9.05438451
H       14.21432058    -9.82522438     9.13225404
H       14.51940794   -11.27784599     8.83441651
O      -12.46121410   -11.82227123    13.95457273
H      -12.43649024   -10.98214021    14.41261253
H      -13.09264476   -11.69144402    13.24717510
O       -5.05059121    -3.83929236     2.16717334
H       -4.96606915    -4.45518017     2.89502641
H       -4.95356972    -4.37965253     1.38306265
O      -12.69699548     0.39321919     9.73805172
H      -13.33825633    -0.30914932     9.84619437
H      -11.93596968    -0.03491416     9.34591217
O        5.18783152     0.53279137    14.03563777
H        4.81973626    -0.32393125    14.25188781
H        5.72766854     0.76007598    14.79270417
O        5.05906386    -6.45018349     8.44272448
H        5.76226823    -7.09044798     8.55133777
H        4.25639875    -6.94507278     8.60717865
O        8.65667966    -2.88339923    -0.83126246
H        8.15387939    -3.28303289    -1.54099247
H        8.98189492    -2.06227631    -1.20034789
O        6.96713954     2.81154447    12.47737859
H        6.63334672     3.68239065    12.69288066
H        6.19269585     2.31749691    12.20833246
O        5.66828115     5.02034116    13.59205839
H        6.34132216     5.33655836    14.19476422
H        5.61306433     5.69717888    12.91746692
O        8.12038486    -8.58589224     5.69885743
H        8.39140055    -7.67838770     5.56022895
H        8.86682943    -9.10709796     5.40322769
O      -14.82754987    -8.46714398    10.00239854
H      -13.92084926    -8.25206012     9.78361832
H      -15.10743219    -7.76182487    10.58585607
O        6.28540258   -11.36810870    -4.76166874
H        7.03398156   -11.04222566    -4.26200725
H        6.10426224   -10.67820687    -5.39999115
O       -9.72536946    -4.06489901    -7.44315974
H      -10.22581567    -4.61451126    -6.84007450
H       -9.49607176    -3.29105366    -6.92855524
O       -8.93599654    -9.56418395    -1.91543856
H       -8.57548446    -9.77713424    -2.77620280
H       -8.90750917    -8.60834497    -1.87310463
O       10.91521292    -1.42865640    10.48573739
H       10.91792428    -2.08039741    11.18677816
H       10.41751851    -0.69344156    10.84349607
O       11.95422449    10.50237500     7.14145805
H       12.78112684    10.73995131     7.56100763
H       11.72270903    11.26849921     6.61639983
O      -14.58766058    -5.84021481    -1.02774057
H      -15.25019171    -5.32584694    -0.56653558
H      -14.96887507    -6.00446894    -1.89025315
O        7.01787994    -1.64716279     1.12719646
H        7.45766175    -2.18476335     0.46855434
H        7.73053722    -1.25532036     1.63198450
O        6.39095145     7.95229128    12.17479985
H        7.06917307     8.48244853    11.75625406
H        6.03423172     8.51677368    12.86061506
O      -11.83645449     0.30801932     2.45468124
H      -11.58500842     1.14295101     2.84951764
H      -12.63899878     0.50333964     1.97094114
O        9.09372291   -11.93789472     6.17525157
H        9.46679228   -11.37986564     5.49286265
H        9.76505030   -11.96463538     6.85704063
O      -15.07215768    -6.37047553    12.44297243
H      -14.53298014    -6.11732615    11.69368289
H      -14.48948386    -6.89585528    12.99133289
O       -1.17775000    -9.21638829     0.64481199
H       -0.93973691    -8.59239889    -0.04091306
H       -1.28667872    -8.68000762     1.43009039
O       13.29479280    -3.11611929    14.34538818
H       13.94754990    -2.55794247    14.76797386
H       13.04104367    -3.74344889    15.02236736
O      -11.11639614    -1.34320386     5.12506787
H      -10.89837406    -0.45236494     5.39911940
H      -10.97498926    -1.34444073     4.17837129
O        4.41331570    -6.43560027     4.92371675
H        3.95334203    -5.71688151     5.35742104
H        4.27124664    -7.19065400     5.49463013
O        2.22510008   -13.37760869    -0.65977705
H        2.75967770   -13.54289613     0.11684298
H        1.73360662   -12.58391090    -0.44833002
O       -9.57096560    -1.25657822    11.14795293
H      -10.19754981    -1.95374686    11.34180850
H       -8.71336748    -1.66531874    11.26495083
O       -8.81574795   -11.98827123     8.89877842
H       -8.01213113   -12.50829931     8.90040550
H       -8.98629124   -11.80718842     9.82309214
O      -14.35392121    -1.49441781     8.45898294
H      -14.70908665    -1.62964342     9.33750636
H      -13.58104184    -2.05798666     8.42321318
O      -12.93662042    -3.08698052     6.61942058
H      -12.12191466    -2.62721537     6.41668335
H      -13.47139410    -2.98623500     5.83195674
O       12.45793919    -7.33555911    -7.60959060
H       12.49700992    -6.44329641    -7.95393432
H       12.54431336    -7.89474936    -8.38165123
O      -10.29384016    -7.43837255   -14.58733721
H      -10.61587295    -6.54161931   -14.49590224
H       -9.36392955    -7.33975687   -14.79172176
O      -11.36152730   -10.30775326    -0.27094761
H      -10.67643638   -10.07274578    -0.89677008
H      -12.09903212    -9.74165472    -0.49865562
O       -0.61135433    -7.08312582     5.46556469
H       -0.39370602    -6.16386201     5.61988615
H       -0.79449981    -7.13214815     4.52732890
O      -12.56721832    13.86292314     6.31816226
H      -13.16327474    13.13159342     6.47973402
H      -12.69663148    14.07845686     5.39456640
O        4.71113322     1.44124185     6.72142218
H        5.22911862     1.64874743     7.49915247
H        4.71355109     2.24958332     6.20877213
O       12.18573046    -3.32763734     6.45660756
H       11.45455728    -3.64153319     6.98866678
H       12.69218044    -2.77172460     7.04880794
O      -13.25920102   -11.10816819     2.42110914
H      -13.16900257   -11.63292293     1.62566678
H      -14.01856726   -10.54952167     2.25525125
O      -11.19610632   -12.48738959    -9.44903987
H      -10.28562662   -12.24001549    -9.28759449
H      -11.57855839   -11.72492556    -9.88333339
O        7.27839793    -5.24264258     6.74665151
H        6.74553992    -4.48966416     6.49107827
H        6.65970172    -5.84569967     7.15868185
O       13.62986510     4.87309585     5.34243990
H       14.24890118     4.90242118     6.07193713
H       13.49400015     5.79061763     5.10595237
O        3.59384445    10.08387704   -14.28590345
H        3.51247190    10.84365176   -13.70940303
H        4.22557805    10.35468016   -14.95209425
O        9.31207631    -0.27479695    -1.60559447
H        8.81619283     0.54359810    -1.62927917
H        9.79510984    -0.23891346    -0.77998994
O        7.63108758    -0.05956301   -10.74341827
H        6.96455855     0.59374774   -10.95591763
H        7.27537010    -0.88287733   -11.07785878
O        4.71224029   -15.55354707     2.23893632
H        4.85209947   -15.51976654     1.29261178
H        3.91691035   -15.04062732     2.38244753
O        9.61925455    10.56243830     4.78200125
H       10.46479459    10.26020853     4.45041256
H        8.97396355    10.13523857     4.21867917
O        6.99749473    14.07960802   -10.75623007
H        6.42607158    14.81197158   -10.98720853
H        7.40843184    14.34596542    -9.93378476
O        4.81803461     8.37041942    -1.46073808
H        5.28900912     8.87448910    -2.12431070
H        5.50658549     7.95875746    -0.93856572
O        1.24704505   -12.99820328    -8.01998254
H        1.77903899   -13.79394616    -8.02273052
H        1.46517229   -12.56654609    -7.19395322
O        2.94267161   -11.98967329    -6.14982986
H        3.15703027   -11.06033546    -6.06850701
H        2.75826649   -12.27269289    -5.25421470
O        5.40799014     8.50176527   -12.25379335
H        4.60924141     8.97623153   -12.48425830
H        5.29979162     8.28530183   -11.32768941
O        6.70577054   -15.60081155     4.31403229
H        7.34632774   -16.24603195     4.01468471
H        5.93709288   -15.75284055     3.76425625
O       12.20190748     5.83058965    -6.87810944
H       11.65514217     6.18648465    -6.17766794
H       11.96605130     4.90381651    -6.91928307
O        6.16696069   -13.50112786   -10.28512367
H        5.98586888   -12.99945614    -9.49028841
H        6.73016792   -12.92931871   -10.80672099
O        7.08020753    -5.51051936     1.24309778
H        7.04954033    -5.72917324     0.31171072
H        7.97497410    -5.72146198     1.50979582
O       12.89921591     1.88614047    -5.60630924
H       12.65573092     1.50791741    -4.76138662
H       13.56473880     2.54038598    -5.39353248
O      -13.88781989     9.99742634    -0.98827742
H      -14.67493297     9.63331887    -0.58317176
H      -13.90380262     9.66453499    -1.88558437
O      -13.01853018    14.07750288     3.62253565
H      -12.78463022    13.17231145     3.82784308
H      -13.41739681    14.03113604     2.75363555
O      -13.79428416     2.83640144     5.02106806
H      -14.62428539     3.23996674     5.27496737
H      -13.76065090     2.02132051     5.52181124
O      -12.84835017    12.68339771   -11.48576303
H      -13.42532884    12.75766277   -12.24590260
H      -12.73957573    13.58329159   -11.17820659
O        2.52560420     3.99640526    -8.05583113
H        1.58374705     3.86623277    -8.16624893
H        2.86465264     4.06500167    -8.94834025
O       10.55788657     9.75607351    13.76160067
H       11.05895537     8.94118942    13.72804731
H        9.85599370     9.63269470    13.12257334
O       11.73026089     1.93014165    -1.47238432
H       11.18817141     1.98597400    -0.68545764
H       12.29087560     1.16859838    -1.32407773
O        4.95053667     7.89981193    -9.58198044
H        4.61416860     7.23978921    -8.97579698
H        5.73480407     8.24211375    -9.15304460
O        8.10459089     6.04214278    -1.53795490
H        7.64923202     6.03184928    -2.37984218
H        8.82549179     5.42202353    -1.64743482
O        6.58461361    11.43947906   -11.10657026
H        6.85314717    11.22754331   -12.00055282
H        6.74613511    12.37932417   -11.02390328
O        7.65478155     7.58115418    -8.70659448
H        7.43763802     6.71159043    -8.37052986
H        8.60543706     7.56519222    -8.81718905
O      -12.22930234     7.58954337     6.74059071
H      -12.21048433     8.01282229     5.88227102
H      -12.28046007     8.31384466     7.36429126
O       10.36127611   -12.38659232    -2.55586442
H        9.99057873   -13.17426269    -2.95384770
H       11.05508153   -12.11732328    -3.15782793
O      -11.85307850    11.11969660     0.52312498
H      -12.70324605    10.78202608     0.24129950
H      -11.86558553    12.04273850     0.27000629
O        9.14529143     6.20350434   -11.29680027
H        9.86291377     6.77132338   -11.01603068
H        9.49646703     5.72711445   -12.04910354
O       10.35895095     0.89601906   -11.30072517
H       10.43195306     0.27340853   -12.02409137
H        9.45014823     0.82047946   -11.00985880
O      -13.74884981     8.75449644    13.95445480
H      -14.11478196     7.91780006    14.24127301
H      -12.85890640     8.54313654    13.67239174
O       10.72368055     5.22052820     8.29177952
H       10.89839568     6.07170965     7.89028653
H       10.11235320     4.79316793     7.69188460
O       13.09478929    -0.53298926    -0.92273221
H       13.04988262    -1.48582313    -0.84321586
H       13.99472398    -0.31413944    -0.68095926
O        6.51614927     2.04673538    -6.02026633
H        5.61137572     2.30240064    -5.84067809
H        6.45055260     1.42559673    -6.74560467
O        6.34304171     5.68192940    -4.07321350
H        5.42087226     5.45841042    -3.94721901
H        6.59011111     5.23421075    -4.88237144
O        4.97092683    10.30546214    13.36347854
H        4.04444623    10.51593171    13.47996082
H        5.29795080    10.98183293    12.77034303
O        7.83730622     3.69232239     2.34553651
H        7.17990949     4.32537949     2.05691896
H        8.27839188     4.12169112     3.07855615
O        4.67112122     5.95692989    -7.41623931
H        4.04083112     5.25030258    -7.55639664
H        5.47871506     5.51102461    -7.16091104
O        8.78510157     2.11834994    -4.50160511
H        9.22788918     1.27399002    -4.58661879
H        7.89529153     1.95528684    -4.81446349
O       12.52001092    10.15419533    -8.49421738
H       13.23081395     9.55081917    -8.71084637
H       11.93925851    10.12372413    -9.25450022
O       12.25587994     9.59956709     3.88619803
H       11.79521482     9.12475981     3.19440505
H       12.61584214    10.37122716     3.44893402
O       14.02549302    -0.38005990     2.38976144
H       13.96495161    -0.46467371     3.34129026
H       13.43809151    -1.05560625     2.05089799
O        2.08738776     7.09116509     2.70381270
H        1.89900787     6.27802866     2.23524679
H        1.68902195     7.77570858     2.16628434
O       10.52364525   -13.44895056   -12.72799286
H        9.69963199   -12.96206674   -12.71464575
H       10.35377759   -14.22296509   -12.19107728
O       12.88985085     0.89872538   -10.02071229
H       11.97254961     0.84642315   -10.28914246
H       13.14275606     1.80324265   -10.20542647
O        3.21786917    -4.18692476     3.10924897
H        3.03607033    -4.13784664     4.04774371
H        4.15665012    -4.01445022     3.03731344
O       -3.17337575   -11.45537473     0.48097810
H       -4.01213683   -11.31064362     0.91888747
H       -2.60086827   -10.77054626     0.82663258
O        9.67220309    14.03168979   -11.76381879
H        8.80481343    14.27889717   -11.44326374
H       10.22747757    14.03980688   -10.98418027
O        9.22629363    12.82667584    -6.30490870
H       10.16079448    12.62442207    -6.25981512
H        8.79182453    12.00946259    -6.06071420
O       12.60353666    12.76712229    -7.39038596
H       12.80534250    11.86008018    -7.62012681
H       12.90007714    12.85696564    -6.48472389
O       11.72429094     7.59438825     2.07164609
H       12.45065948     7.76059757     1.47081745
H       11.48409083     6.68182346     1.91114292
O       13.67593252     7.85472358   -12.88665962
H       14.61152455     7.75476972   -13.06246812
H       13.35300536     8.39658836   -13.60661271
O        3.15906472    13.65608622    -1.10748942
H        3.80502765    14.27729278    -1.44374254
H        3.53816773    12.79547280    -1.28597560
O      -14.09422011     0.26363115     5.99810550
H      -13.79517652     0.13680365     6.89850517
H      -14.94877830    -0.16642185     5.96622180
O       14.71758671    11.32592219     3.09803726
H       14.54674452    11.48200520     2.16923001
H       14.65837092    12.19179385     3.50175944
O       -7.84701376     8.02697486     2.47870915
H       -7.62608631     8.89093721     2.13087015
H       -7.50170305     7.41217425     1.83139734
O      -10.17233093     4.99647606     5.31434347
H       -9.98391049     5.92497534     5.17789326
H      -10.13296187     4.88059503     6.26368720
O       10.33855775    10.35392889    -3.22871927
H       10.19492019    10.21476813    -4.16479319
H       10.26891122    11.30161524    -3.11351600
O        0.53278547     7.87563890   -11.94590573
H        1.03782142     7.54132133   -12.68712250
H        0.25233221     7.09177897   -11.47352725
O       -1.43945661    12.34820912     0.40820251
H       -0.48796396    12.34829700     0.51257480
H       -1.62528961    11.55731344    -0.09794170
O       10.16689104     9.51647944   -13.21260776
H        9.28618849     9.27307405   -13.49782468
H       10.64961918     9.66614184   -14.02550785
O        6.21960961    11.55539451    -8.38584106
H        6.00960698    11.30421807    -9.28530821
H        6.45366848    12.48172700    -8.44377559
O        2.12002032    11.27898076    13.18728541
H        1.48477651    11.33686156    13.90097089
H        1.71171623    10.69357280    12.54946322
O        1.08933510   -11.07112074     0.78178008
H        1.24652296   -11.12020489     1.72470881
H        0.29283574   -10.54686914     0.69822848
O      -12.08648856    11.87422854    -2.65422426
H      -12.84520791    11.29166354    -2.61965812
H      -11.69088744    11.70261923    -3.50878956
O       13.73497683     3.53441311   -11.11153748
H       14.60001957     3.35680499   -11.48084531
H       13.21026277     3.82405454   -11.85787175
O       12.41259342     3.22470768   -13.50576200
H       12.99361497     3.22559885   -14.26644920
H       12.33883653     2.30222267   -13.26119467
O      -14.78086261    10.30800003   -11.28953396
H      -14.70538424     9.55256316   -11.87250051
H      -14.14676154    10.93869245   -11.63067140
O        6.97286663     4.63921355    -6.73388530
H        6.95838562     3.74359133    -6.39641975
H        7.64451428     4.62790338    -7.41578952
O        5.83628874    10.12475241    -3.44535079
H        5.76816968    10.24890203    -4.39201784
H        5.63380896    10.98405086    -3.07543194
O       12.40730831   -14.46012805    -8.74172544
H       12.64980161   -13.73092392    -9.31241816
H       13.18018676   -15.02475270    -8.73225116
O        3.58032612     5.29687917    -3.71167706
H        3.32105716     4.56225825    -4.26786368
H        2.89522498     5.95201153    -3.84460511
O       12.65203173    13.29265521    -4.59282743
H       12.63584308    13.72846726    -3.74074900
H       13.50263565    12.85466011    -4.62224021
O       -5.05856737    12.68151762     2.53526249
H       -4.53075544    11.94415370     2.22876475
H       -5.94305691    12.32522911     2.61874055
O      -14.31707366     9.47443639     4.82180962
H      -13.40009658     9.21519803     4.73136435
H      -14.48917709    10.01963392     4.05410400
O       -2.67322047     0.84358783    13.76047381
H       -1.87750227     1.32577245    13.98533463
H       -2.40741376     0.25989382    13.04992476
O       14.50704042    -6.01105417   -11.03430054
H       14.58219987    -5.46020906   -11.81350049
H       15.40012926    -6.06989983   -10.69494619
O        9.97083003    12.93291412    -2.12074842
H       10.66249582    12.85744148    -1.46337929
H        9.99791647    13.85006234    -2.39339713
O       11.34913099     4.93527645     1.60430969
H       10.84867080     4.38140843     1.00514222
H       12.26334231     4.70905312     1.43321758
O      -13.99342730    14.32854792    -5.07729142
H      -13.80752037    13.81977272    -5.86647978
H      -14.91973007    14.55784519    -5.15224335
O      -14.81739860   -15.31931043    -8.87877101
H      -14.52259835   -15.33799188    -9.78925202
H      -14.15586759   -15.82059732    -8.40199011
O        5.12748774    10.67618887    -6.04763555
H        5.44570610    10.75889339    -6.94659544
H        4.81498232    11.55238050    -5.82211301
O        8.66040173    13.53276427    12.36884516
H        8.97136778    12.99908517    13.10008970
H        8.68215972    14.43038728    12.70055494
O        2.83727107   -14.14374978   -13.09604324
H        3.07312728   -13.93901053   -12.19123081
H        2.83959179   -15.10018978   -13.13410884
O        6.34709040     5.80281025   -11.82810403
H        7.14523844     6.00364769   -11.33937520
H        5.85996645     6.62668615   -11.84116603
O        9.91087290     2.56553094     0.57246578
H        9.97071836     1.63677226     0.79620153
H        9.19380400     2.89689061     1.11306250
O       10.98936352     7.42192066    -4.80096504
H       10.04523333     7.30923915    -4.69072476
H       11.07493397     8.18676968    -5.37010081
O       -7.10695507   -11.01534943    13.81184709
H       -6.62177667   -10.79234174    14.60626596
H       -7.82867967   -11.56472050    14.11768510
O      -14.42034380     7.46506485    -6.61614132
H      -14.62562957     7.25653295    -7.52751614
H      -15.19959109     7.19949644    -6.12779829
O        6.19238765   -12.82366327    12.70235868
H        6.85662647   -13.37180359    13.12016346
H        6.67754365   -12.06630626    12.37484398
O        4.15454140     9.67161340     2.61895044
H        3.88065900    10.12773981     3.41466961
H        3.43492190     9.07024247     2.42729285
O        9.73020655    10.86889193     9.00262774
H       10.64273913    10.96203510     8.72905785
H        9.30728955    10.41148440     8.27588748
O        4.90143475    11.66839151     8.26778030
H        5.61845515    11.98536364     7.71856062
H        4.32489125    12.42556517     8.37033518
O       11.11205000    13.05473655    -9.64813389
H       11.39021679    13.35161683    -8.78169452
H       11.75243023    12.38550867    -9.88954445
O        7.03260752    11.86890602   -13.97234884
H        7.84668746    12.35951946   -14.08550429
H        7.23575501    10.98985525   -14.29208732
O        2.64527802     5.15159671   -11.79653010
H        2.19422505     4.34448687   -12.04423312
H        3.22714353     5.33723020   -12.53355424
O       13.73907318     7.71973640     5.30336656
H       14.59963221     8.09885736     5.12465646
H       13.12467205     8.29146172     4.84306963
O        4.20879583     6.78002769     4.39820161
H        3.63633821     6.45013760     5.09080298
H        3.61025778     7.06759396     3.70878905
O       13.96520492     3.70707249    14.05804564
H       13.56742211     3.44475822    13.22786980
H       14.89868414     3.52874534    13.94381857
O        7.52020807     7.17595295     9.37654917
H        8.33650749     7.66634734     9.27959326
H        6.85458286     7.73674948     8.97819984
O       14.33252830     4.45428560    -5.44621928
H       15.18286260     4.88142704    -5.34271265
H       13.74838702     5.15157871    -5.74420107
O       14.77706058   -14.38401162     7.76757519
H       15.05107718   -14.55747292     6.86698764
H       13.82606288   -14.28879473     7.71495407
O       -0.33944848     8.68841141    13.82681285
H       -1.02350779     9.31151458    14.07183766
H        0.08238503     9.08299372    13.06353495
O      -13.43169667     4.90126212    11.09126939
H      -12.84551509     4.32153283    10.60491875
H      -14.02147348     5.25825167    10.42722600
O       11.48042231    -5.45956022    14.67660907
H       10.78307304    -5.34538988    15.32228777
H       11.09509551    -5.16275945    13.85219146
O       14.08894545    10.83636960    10.96424040
H       13.68733002    10.88663096    11.83165650
H       13.73493034    10.03336134    10.58203246
O       12.48919061     8.99589741     9.65166988
H       12.13379149     9.03222483     8.76363631
H       12.05704079     8.24167115    10.05244555
O       11.51464782     2.66437705     9.03137200
H       11.24156244     3.56963722     8.88250882
H       10.90846625     2.14146868     8.50664102
O      -12.08208192    10.09719838     8.09551893
H      -11.12555365    10.06225987     8.10356996
H      -12.30887881    10.63736195     8.85249868
O        8.93465121     6.15692957    12.17220225
H        9.60077691     6.56055020    11.61578623
H        8.12808508     6.62679912    11.96029299
O       13.11905344    -0.59977497     5.17609401
H       13.06908994     0.33827601     5.35993050
H       12.26450535    -0.81718735     4.80365439
O       11.19330320     1.93110181    13.84258096
H       12.05882649     1.52242354    13.85171124
H       11.37107003     2.87064993    13.88594154
O       14.93452001    12.39916117     6.87958959
H       14.70870308    12.88889270     7.67041295
H       15.52357796    11.70910184     7.18464809
O       12.59758589     7.71218025    13.46209707
H       13.33584196     7.97418579    14.01215425
H       12.98639659     7.15447712    12.78828307
O       12.88538644     2.32010483    11.60616743
H       12.42809463     2.60551176    10.81518139
H       12.81326353     1.36570455    11.59390987
O        5.88278933     4.86751682     9.47722517
H        6.54864368     5.41732550     9.89023879
H        6.20329670     4.73131960     8.58562145
O       11.18257097   -14.94209050    11.52992885
H       11.08951061   -15.74724078    11.02070921
H       11.99451492   -15.06212113    12.02244436
O        9.20785579    -3.48975754    14.37502018
H        8.73342581    -2.66062214    14.43570408
H        8.56356307    -4.15348926    14.62114809
O      -11.11728209   -12.98141782   -13.41925472
H      -11.74567795   -12.41420234   -13.86604000
H      -11.65758658   -13.56815394   -12.89006323
O       14.15909942     6.42392940    11.47958599
H       14.79047494     5.77533760    11.79091456
H       14.39730878     6.57058752    10.56417377
O       11.43120385     6.49691333    10.76276768
H       12.30845965     6.34182364    11.11291236
H       11.35401017     5.88631908    10.02965947
O        9.31127628    13.56872675     9.63153037
H        8.96347647    13.73520305    10.50763127
H        9.43421514    12.62003265     9.59840349
O        4.43932653     7.16633852    10.26887808
H        4.57104825     6.21837973    10.28485870
H        5.11658561     7.51256849    10.84997773
O        5.80368813   -11.74670491     5.34808141
H        5.60181812   -11.73389075     4.41249810
H        6.75665671   -11.82780549     5.38688144
O       14.11546064    13.15648331     9.32856664
H       14.67527741    13.73417974     9.84731887
H       13.96077285    12.40033953     9.89473810
O        1.89016999   -14.39952512    12.06603595
H        2.26743481   -14.84638703    12.82380738
H        2.09146349   -13.47457909    12.20811905
O       11.22522058    10.75505369   -11.11837775
H       10.64900821    11.49581422   -10.93000315
H       10.89697431    10.39964944   -11.94431604
O        2.09677502    12.82976494     9.84941364
H        2.59731465    12.88910275    10.66315252
H        2.09909602    11.89719276     9.63369255
O        8.64823797     9.30310249     7.03732535
H        7.99064993     8.71425471     6.66709825
H        8.88663227     9.88215634     6.31338015
O        6.26950022     7.94601541     5.79058934
H        5.56830978     7.66482383     5.20280102
H        5.86959948     7.94228145     6.66024290
O      -11.76955277    14.08463510     8.87835440
H      -12.03818324    13.99044294     7.96446307
H      -11.11128677    14.77942205     8.86461303
O        9.43565059    -6.23428881     5.08746076
H       10.19355213    -6.01759151     5.63047032
H        8.71353582    -5.73965492     5.47491324
O      -12.26029361     5.55424546   -14.55687017
H      -13.06339313     5.38950478   -14.06278160
H      -12.45060007     5.23299146   -15.43823909
O        3.62872560    10.94179005     4.95765545
H        4.34406662    11.45797757     5.32923253
H        2.83451284    11.34536207     5.30778052
O        9.04561766   -13.99701174     8.35806857
H        8.33788856   -13.35843321     8.44506755
H        8.59928282   -14.83340756     8.22593570
O       13.82884459     0.46819423    13.98674506
H       14.27209724     1.31610990    13.95849706
H       14.48712635    -0.13537101    14.33113724
O        8.62374539     4.79422929    -8.87537578
H        9.48445611     4.47712389    -8.60178287
H        8.79718057     5.30992166    -9.66291211
O        6.07478355     6.24892114     2.31773681
H        5.40648399     6.61985701     2.89394349
H        6.52188154     7.01007451     1.94762766
O       14.42328966    -9.20489089     6.76128437
H       14.01110049    -9.19418595     5.89744565
H       13.84492204    -9.74832681     7.29644803
O       -9.93241609     4.59868193     8.25588405
H       -9.62326987     5.18917593     8.94289009
H      -10.69467862     4.16392147     8.63820725
O        9.64967606    12.28660281    14.59894121
H        9.70388245    11.38187302    14.29111411
H        9.78065055    12.22639004    15.54522444
O        7.35936441   -14.98770718   -14.94763821
H        7.91686927   -15.40441701   -14.29054377
H        7.92926016   -14.87317480   -15.70812031
O      -12.93565343   -13.08406663     4.66162887
H      -12.69956402   -12.71939578     3.80868760
H      -13.15296594   -13.99838455     4.47988763
O        1.05900208    13.63611260     3.57856635
H        0.15256566    13.94012753     3.62525470
H        1.17800644    13.11352849     4.37164621
O        5.37299081     8.64919440     8.20103393
H        5.34748860     9.59098052     8.37020956
H        4.94304082     8.25711082     8.96106375
O      -14.05214181    -9.46749537   -14.09681781
H      -13.99796486    -8.83393655   -14.81228963
H      -13.22075415    -9.37561312   -13.63143187
O      -10.38351807    10.21225857    10.98690032
H      -11.27190135    10.56755820    10.95916634
H      -10.46286158     9.40727966    11.49870634
O       -4.92846219    10.66504207     6.95592728
H       -4.38535666     9.88813122     7.08888501
H       -4.32696545    11.40079244     7.07040398
O       -1.80001067    13.62523782     3.03956649
H       -1.72779873    12.98577397     2.33097404
H       -2.73512424    13.82346620     3.08956622
