2637
Iteration 0 Energy -113.64806736763056 
O  0.0 -1.4330000000739278 0.0
H  -0.9620000000496292 -1.6700000000861546 0.0
C  0.0 0.0 0.0
H  -0.49000000002527894 0.4170000000215129 0.8860000000457083
H  1.0400000000536533 0.3310000000170762 0.0
H  -0.49000000002527894 0.4170000000215129 -0.8860000000457083
O  -10.846422274264828 -1.9408872876112766 -1.2180341758341438
H  -11.061666834846536 -1.1329977852868018 -0.7519696073554237
H  -10.665875674549167 -2.5766004419739508 -0.525572219103865
O  4.353262741002955 1.283654309333484 -11.498277609401445
H  4.298984589793441 0.7153621198955119 -10.729948434800852
H  3.463189249634616 1.2971476766595782 -11.850156792955879
O  6.338376977762218 -10.375256534400386 14.9162774130107
H  5.760647519283978 -10.592507745911973 15.647893729614246
H  6.057746708554835 -9.502902261490695 14.639733518921261
O  -7.962763455431147 11.623992361734102 -10.852733113482007
H  -8.710484516099088 11.11422400815265 -10.540833623360877
H  -8.056570126823145 12.47459753952647 -10.423893993610093
O  6.146787076790444 -14.427775551340648 6.7950533129680935
H  6.179012042175956 -15.224447406632095 6.265423860039217
H  6.483472930419294 -13.742234052531362 6.218072082602767
O  -8.276516268314902 3.0663646543620144 6.4695267371076675
H  -8.885160905001365 3.4036939169772644 7.126788120146114
H  -7.441040575410616 3.483621192540984 6.679548637704629
O  -3.0943695423500692 -3.631639001409885 -2.9404826495492955
H  -3.4844668480178016 -4.499457787394869 -2.8358571382259123
H  -2.2077199530340414 -3.7234454837896367 -2.591690553342785
O  -9.126704607104747 -8.76342085014162 -6.3626706817849685
H  -9.637015980553517 -9.55300738116421 -6.1827616409507264
H  -9.202994615808656 -8.63872461863593 -7.3086424230318165
O  -14.267129274513739 -1.5466206717822006 -6.493948477895254
H  -15.136142823957021 -1.193552301142211 -6.68471018095686
H  -14.22004646768324 -2.3561544311972455 -7.002544734749021
O  3.9078471967194472 3.0312659128781396 -5.718743458058253
H  3.3665912997978427 2.5094153318798975 -5.126336608016205
H  3.337535430683359 3.215810057591342 -6.4650140517374
O  -5.8639861175026216 -6.921575865160627 2.8124101271291826
H  -6.101374817923003 -7.5174715738596465 3.5228935963838666
H  -5.533882628514622 -7.493637587871113 2.1195833646662883
O  -3.7309493758104404 -4.265431083526162 -9.298523137007468
H  -4.407860384911581 -4.06296079944989 -8.652745218028269
H  -3.101906263898029 -4.809232879291746 -8.824375247530954
O  2.5013874035891686 -0.31598922748499325 2.9774664334882637
H  2.736428361653509 -0.8856943936533948 3.709875897170013
H  2.9923191157533195 -0.6659982753755886 2.234020691551671
O  7.147493570621598 -6.108240035674328 -8.669022520477075
H  6.897628046136038 -5.594872316313366 -9.437301542193168
H  7.990825880333293 -5.743570134882376 -8.400622949556999
O  -9.330889491491863 -1.8948901986048452 -6.008861249641266
H  -9.081681662084014 -1.7243077659930512 -5.100550211360092
H  -9.974511364490311 -1.2163134202741728 -6.212616719078758
O  14.329805119593273 3.3472483510037288 0.16647324815366432
H  14.330726944184828 4.024425181911557 0.8429808539781729
H  14.779394834810462 3.74972167385012 -0.5765719477700206
O  -12.42717674062934 -8.501489950284096 13.84124996970968
H  -11.592397892900744 -8.269464861978792 14.248116636566513
H  -12.256743046896892 -8.455057388567239 12.900490582793724
O  -2.111471532572164 9.990054305288465 -0.8136320458273254
H  -1.182171789722908 9.797278830252553 -0.6892477422261799
H  -2.4332364118691783 9.275727968044754 -1.3635748584799852
O  13.06681856850875 -10.122733331434123 -9.488920884702388
H  12.262539355552068 -9.674181384176585 -9.750010809890258
H  13.14414996064178 -10.853341321701366 -10.10248723903237
O  3.375798305497191 5.695861732708044 -14.370282741902326
H  3.229904664319385 6.62591147517162 -14.543356058230048
H  3.8807363956278125 5.388013686253573 -15.122943991234827
O  -4.27638714621178 0.38717581366312104 -8.356196305499854
H  -3.7855167499852085 1.046267845670616 -7.865405313049956
H  -5.18675931199954 0.5198521542946352 -8.091902228356814
O  3.46883116284783 -10.74085834058488 10.061700438310744
H  3.336120999790919 -11.280597245139832 10.840996132093652
H  3.1828648313753054 -11.294272185703086 9.334934847412972
O  13.84656970806881 -5.643472262787187 0.7736495042586572
H  13.010030759279632 -5.895805748649561 0.3828013881206887
H  13.840359613465056 -6.052755478613557 1.6389127790977045
O  -12.496971081928823 5.205055000791694 -11.247775045123943
H  -11.571968140245811 5.310907240984921 -11.025521334376045
H  -12.82575451978296 4.5706681489440735 -10.610839707736357
O  2.9697172389715636 -1.161748350447422 -4.3262259139790284
H  2.34205734043474 -1.2341459757183413 -5.045276320029419
H  2.910176272355962 -2.001258747431151 -3.870255501048478
O  -1.4567833796553327 -0.9236960653557027 -14.456165118940483
H  -1.8796904657702531 -1.7739433266614486 -14.57641919152525
H  -1.8977236325732028 -0.3460825531748712 -15.07919495347508
O  1.945289314370694 6.396033340225298 -1.5800058171060525
H  2.2872161883205764 7.238822176711183 -1.8783761252517954
H  2.644172778564187 5.771330394266821 -1.7737581941367828
O  -10.595997280973002 13.163878697209267 11.228563199993358
H  -9.922216771294973 12.527754874662387 10.98856703755795
H  -10.837495189415673 13.581176802306832 10.40165758112434
O  -3.196424096231202 7.465353633628706 -6.518383131392835
H  -3.427219344081017 8.301148360452414 -6.923861341659406
H  -2.561697980619843 7.074467226380823 -7.11885163648458
O  -0.42094590947844035 10.463581458991872 -13.110819120654632
H  0.21105222697752365 10.493060213384585 -13.829109597671415
H  -0.2689174711630342 9.616396802552668 -12.69201443747317
O  -13.378096553358642 -7.770046716428682 -9.833364945312837
H  -13.437415283337568 -8.538488122995068 -10.401001223016543
H  -12.451399298652984 -7.714985270235035 -9.600057667069287
O  -10.594431692156457 -13.883550727275322 1.63904873620201
H  -11.464587885140858 -13.89409840864382 1.2403649052707895
H  -9.996883295478844 -14.074620432643908 0.916096364232921
O  2.041538869654383 -1.2388109235340812 13.366964496492672
H  2.9585788897066294 -1.3284000244808327 13.626277522450652
H  2.075010587491772 -0.8163618782148587 12.508682317351541
O  -3.9312946102330755 -13.422353120444804 3.2267355999393397
H  -3.7970582479763673 -12.493663059773166 3.0376662447409073
H  -3.2378581115342087 -13.643366150813199 3.8484517035565706
O  0.20821833943529994 -14.982496898577791 -6.116807953861567
H  0.0914995624033134 -14.205110742963141 -6.662957514846641
H  -0.3652699083159149 -15.640331738624937 -6.509995445687976
O  -8.162744949489527 11.301062875118767 -5.268057220573016
H  -7.504910503538971 11.929982056565752 -4.971499712243965
H  -7.966910628056647 11.168320013442141 -6.195559297142217
O  -2.7204044194229784 -6.581539598613741 11.952963464144544
H  -2.762808355838197 -5.877234233990492 11.306134498840144
H  -2.3286111195393318 -6.174485170442776 12.725644869052186
O  13.546694276278576 -0.09386530364608 -7.397305783155784
H  13.481962714127707 0.23593163481455742 -8.293562250390949
H  13.474851294361956 0.6870531863892324 -6.848455394900795
O  -6.57189496019585 -9.160201414073718 -11.556366166622112
H  -5.996932696478662 -8.501006782240243 -11.945098315383301
H  -7.156601762386109 -8.66194141983507 -10.985326076583684
O  9.463917613244737 -6.2192475308131465 2.3480965326139853
H  9.809101335054661 -7.102778976073286 2.219830269507375
H  9.507894539633918 -6.079390616466936 3.29400240756787
O  -7.1618540461550495 -1.8644761245990376 -7.925108430174942
H  -7.879562489090133 -1.86308201445473 -7.291764528164383
H  -6.484557770905818 -2.4054593535824544 -7.519105040645311
O  -5.842105059202405 -12.816952286059383 -2.721659991559985
H  -5.722645635307778 -12.146629993575102 -3.394437310632752
H  -5.349558120842735 -12.491290339790385 -1.968285143903016
O  0.8807474589465824 -1.6597247458718685 -5.982763211367487
H  0.19123829862984637 -1.0012904627822097 -6.068046641814866
H  0.4239491634810144 -2.4971848955515803 -6.061678772415625
O  -7.293093890774508 1.6675578573734062 -2.4801436945596675
H  -7.599804326438794 2.321363510790831 -1.851893165684924
H  -7.360041616849161 0.8351958886999198 -2.0122511792350615
O  7.524705412155717 -12.100346531098225 -12.332164383565189
H  6.724265477774391 -12.434657667148931 -12.736841818786699
H  7.543317238754923 -11.172747400833247 -12.567632649494287
O  6.190293012715201 4.858709062414271 0.002552462736910789
H  6.193026841834116 5.372535095564876 0.8101459153183559
H  6.85645254987056 5.271695242021298 -0.5469070328839299
O  -7.780280221435771 -7.419166632607306 14.865445935873208
H  -7.442888265812211 -7.24402243866737 15.743923613692626
H  -7.000766261537851 -7.450536133974138 14.31082372974942
O  -4.551657663070651 10.254961524749309 11.826580141531021
H  -4.7505301779031015 10.898538233886143 11.146513532206486
H  -5.297903960140307 10.299148764561746 12.424406038230842
O  -3.7997186238320646 10.637109561273736 -13.392087372150769
H  -3.6797042084891323 11.550182303475541 -13.653098020162162
H  -2.919474666879016 10.333083669991328 -13.170794162822208
O  -10.259105226737235 -12.037849868607642 -2.6932384364913906
H  -11.157811145686466 -11.713778920139042 -2.6337611936027407
H  -9.717456171129683 -11.291901042735441 -2.4355399682058945
O  -1.7980434217889483 -3.258933142437111 12.03373819749646
H  -1.6770799494467983 -3.8727846342355705 11.30931702497795
H  -0.9570380074344366 -3.2584235070380068 12.49083937241894
O  -3.558584047691695 5.2232871976469974 -2.017472776792613
H  -3.5977708849257493 5.963461647333039 -2.623144326922644
H  -2.6339289214246104 4.97645125721183 -1.9996748332359757
O  0.630812454737488 -11.093934973638405 8.218183084770821
H  1.1899714741612692 -10.509467473147305 7.70635227025876
H  0.6171950446535654 -11.910771512797035 7.719359984608739
O  -0.35361341249807765 3.946383315789835 -7.182007904755679
H  -1.034071712408069 3.2883800088651327 -7.039740547371366
H  -0.741361176987465 4.561984459365299 -7.804035841410793
O  -10.025873538469796 -1.4885802979148155 -8.95249452552719
H  -9.901058991275994 -2.425529623285313 -8.801566922637818
H  -10.696860568055982 -1.2309583921245737 -8.320324286903551
O  -3.012178528831231 -10.681664741685266 3.4517855259064896
H  -2.1973366142020927 -10.255971869100154 3.1852333111133824
H  -3.0543294217007597 -10.547731352130093 4.398631342399291
O  -11.9744521695607 8.136772128372167 -9.986759510077858
H  -12.69294356499698 7.724296712045207 -9.507316086484124
H  -11.413347920727636 7.4080351774689195 -10.251969481887135
O  -5.560741218534313 -9.61014918179804 -1.4496898497970891
H  -6.4186612174434385 -9.947238099294557 -1.1916662307422652
H  -5.415485433438819 -9.96858524797026 -2.3252789053366336
O  -8.45057664627709 3.442476909548695 -0.7960917889292776
H  -9.204462583448361 3.4622996095182472 -0.20660480423948205
H  -8.020097934500072 4.287094405475765 -0.6636485365604189
O  -2.237446974703528 -10.861184585546507 -2.030475222631018
H  -1.497112222392217 -11.45560194900088 -2.152148158658129
H  -2.5328392085072067 -11.025927076904537 -1.1350227165945574
O  -3.9818868161352556 -0.10763928410196251 -3.051050042237163
H  -4.697239015741329 -0.1238589548303776 -3.68684875536701
H  -3.8466795873760296 0.8216353177705114 -2.86557883039187
O  -3.6469383424226414 -6.930009625226587 -5.584678896322629
H  -3.7085746071186025 -7.7360140336520935 -5.0720487028202035
H  -4.540287185274668 -6.586620897797209 -5.600295479391085
O  -7.5888520117986875 13.177728593623945 -13.295444402054724
H  -8.249999555809849 12.647669919008981 -13.74058884752248
H  -7.479008260533277 12.757686100964678 -12.442373182585982
O  0.7366198893048741 2.9671242236996327 -10.525178077316253
H  1.233513017588606 2.5374389603961505 -11.221381815012037
H  0.9154782721141719 2.443281276338115 -9.744261887052666
O  -8.959090587152405 -14.748621632018239 -10.577332979954708
H  -8.221158889883288 -15.03563160466262 -10.03945387031617
H  -8.733185632627386 -13.855695319465223 -10.837873576961922
O  -5.474446985495232 -6.87829336628242 -8.42802577844531
H  -5.0670813064279985 -7.16282533435673 -7.609901940949294
H  -5.015308091739471 -6.070020729569539 -8.656320920310616
O  -3.983281007868096 2.7136537203390536 0.9650932140043467
H  -3.3566734736358246 2.5466119550298165 0.2610393115912697
H  -4.688556145735405 2.0846386694734473 0.8129127405258375
O  -5.900404847616799 -5.513756054104734 -4.999310733573103
H  -5.833172854353673 -5.6621726824734475 -4.056080001290229
H  -6.787691234116053 -5.794104196085469 -5.223720266433011
O  -6.282731317078532 7.503206372500221 -9.29144318233152
H  -6.261555928199934 6.8382445876958675 -8.603250419747518
H  -5.36210057279775 7.663148698444462 -9.499022892018942
O  -2.6820912176002776 -12.576360375502649 -8.343302092401961
H  -2.4308389931731527 -12.79925474394916 -7.446963835351305
H  -2.6022051180512653 -13.398782826539028 -8.826490848425436
O  -12.17974088309397 -5.301196103433887 0.9146870051867839
H  -13.01907112969195 -5.139966330174555 0.4836863692500477
H  -12.408924446093133 -5.762796726618628 1.7213043927651963
O  -11.088236148492307 -9.705175986095773 3.5301640171999433
H  -10.53176350365219 -10.475514674298253 3.4154977544175544
H  -11.924497205857325 -9.952309764321502 3.1354182883921755
O  -7.681919426150795 -10.12237497622304 -4.309851870416051
H  -8.039525199119824 -9.565643423568583 -5.001516485844321
H  -7.121110646689187 -10.746706515410708 -4.770216392150402
O  -10.49003107484879 -11.303261481369095 -6.440077717340907
H  -10.68773096361789 -11.981447851896384 -5.794159880747843
H  -10.006837737851635 -11.760745648821453 -7.128165129251146
O  3.2660383473692667 -4.395647404553621 -3.8537187640067065
H  4.051273537162675 -4.524347712990313 -4.385765545911987
H  2.54587955413161 -4.681807708879705 -4.4156043783160985
O  -2.3261890736165585 -12.825032225870071 -12.327176948696373
H  -2.5462420029598647 -12.517289232193109 -13.206439599414306
H  -1.91171329560209 -12.07196299386402 -11.906073146692076
O  8.75674223486753 3.6238710166639243 10.652968877171055
H  8.265021897105287 3.3390076343781887 11.423225856159934
H  8.892325685579147 4.561729366521927 10.788138009416963
O  -11.03513243856523 -5.608045189161417 4.198854525293897
H  -10.349999944576005 -6.236394682995922 3.9708145505188948
H  -10.672208836832283 -4.757294534282674 3.9523963476127113
O  -1.3533724333755135 -5.894394621732383 -11.832245665941134
H  -1.2169099219135187 -6.742488338465103 -11.409934309923655
H  -0.5665196540945573 -5.391840930569121 -11.62121405206925
O  -4.236362014565943 -4.352935536499865 -14.529873456620608
H  -4.5826010535629536 -3.6070723513971155 -15.01981068504907
H  -4.448189326888265 -4.159407941723245 -13.616687763219952
O  -8.778412571982175 13.206996321916781 -7.608371817380607
H  -9.033464994165852 13.742593445931552 -6.857162237101773
H  -8.042996385478371 13.677966001438666 -8.000267778595587
O  0.6880087898318793 -9.000250057316215 -5.971542488246665
H  0.6493516080304365 -9.485581801205184 -5.147412297387103
H  1.605804709021508 -9.05286624087636 -6.238214644205598
O  1.2047304315937386 4.676353243470804 -5.130701760028353
H  0.8556383999888016 4.687663519042306 -6.021902456815441
H  0.6729102534856701 4.025351925767048 -4.6728847296303675
O  3.912457855052018 4.052519636577488 -1.2334845783405666
H  4.757052945036271 4.329284173864141 -0.8781081923885006
H  3.895046964111394 4.413670545015044 -2.119768242315446
O  -7.634624648605052 -0.7067546469266993 -0.9081108417898943
H  -8.367738897317999 -0.9674154313845571 -0.3505883717519403
H  -7.283188612983265 -1.531477555142371 -1.2436055337718723
O  7.263853478234115 -3.6450599035907434 -6.3396756931075515
H  7.2938978136661206 -2.69442663859103 -6.447497695508683
H  8.076333853688297 -3.9575335988602713 -6.737755685174209
O  -13.394387295045796 -13.76396772663242 -2.649056218862022
H  -12.804108401830847 -14.327816821643538 -3.1489330807964757
H  -13.061886024910674 -12.878439236960181 -2.795732904653228
O  -5.138397498969657 -2.1146887342621556 5.65910211253171
H  -5.30730380298741 -3.0455738465089515 5.804551138233803
H  -4.832573040065221 -2.0649165846905926 4.753438828369108
O  -9.127791466300232 -4.539241322799686 13.338160924877425
H  -8.241081821687894 -4.412965969307617 13.675847750307835
H  -9.697879419468578 -4.198350238683694 14.027381386877726
O  -4.826059766274772 -7.092938531536057 -12.067821900483864
H  -4.307720867913896 -7.0864980333759044 -12.872505165655221
H  -4.22492398680328 -6.7783702990676895 -11.39260752520866
O  -10.251076783820785 -0.17682770666790698 8.119581045404004
H  -10.716979732300336 0.45645105183733226 7.573573437909859
H  -9.775651278032633 0.3581910591390792 8.75515744482252
O  -11.976231629290687 0.8254308281557519 -0.6896773976543542
H  -11.506503406728982 1.5211248535864135 -0.22968058165835603
H  -12.869220805604964 0.8723985555723656 -0.34821551927812217
O  -4.991286507215254 -13.914478103913785 -5.8494292977503735
H  -4.041754929358448 -14.012885961873987 -5.919696836214488
H  -5.234350192732037 -14.459732497558427 -5.1011983562546535
O  -2.380581819950148 -6.211727834064684 -8.015217063486318
H  -1.7134319133417009 -6.8590431701601915 -8.243527616429576
H  -2.9790939406013424 -6.679206773781251 -7.432569199701991
O  5.742564461785722 -1.08586670371706 -4.183837145758969
H  5.757725206483876 -0.45286138111221574 -3.4659887883801344
H  4.813412878501289 -1.200102983758543 -4.383484981759441
O  3.2612977296395744 -4.815123376302572 12.575340301818308
H  3.353963069736905 -5.043710715351554 11.650465816286077
H  4.15919803503964 -4.691569176574477 12.88314097126101
O  -9.849427656831816 -3.4104963552800784 3.11532708446048
H  -9.268123751854635 -4.085865572380834 2.7657644413357496
H  -10.032471128602456 -2.841099346249493 2.36798915262072
O  -10.510199668346242 -8.62025687362691 6.040088797564605
H  -10.757374449925724 -8.94124446527158 5.172849820016521
H  -10.038094072386736 -7.805387760170454 5.868809829165786
O  1.8612731645480451 -6.743911435010698 6.891185866826312
H  0.9744783995148081 -6.84969287624696 6.546748380165843
H  1.9883795586316513 -7.500726189598593 7.463293586262508
O  2.282725797089112 -14.228231883386142 2.3705464029566183
H  2.1436104097966 -13.434406746576533 2.886996218529259
H  1.5334000877707221 -14.78557223446554 2.5805810792139927
O  -10.594173938084353 9.038401630471238 -1.8497450121470118
H  -9.768666081618093 9.412370053263528 -2.1578298194389074
H  -11.167634741668005 9.794281535271068 -1.7231743714346033
O  -8.89670073994462 -0.7540677515437609 -3.599210185148885
H  -9.648998530522507 -0.1622501650379195 -3.6048519412042386
H  -8.86268594836648 -1.0904454110007709 -2.7037075804684325
O  -1.4422012981276806 0.5065780832626938 -6.489513248598135
H  -1.3657311976631585 0.04300221976423858 -7.323468639092113
H  -2.0901520120562163 1.1915965648515516 -6.654259729648725
O  -6.459502459388463 -11.489246252963536 -6.4126020529691115
H  -6.042970809761107 -11.099610332650888 -7.181313367623829
H  -5.964953547138475 -12.293153420145089 -6.253270666344117
O  -5.757402442831307 14.359183246362813 4.575666246320759
H  -5.331278398636451 13.694151081618074 4.034942315251213
H  -5.238839334780891 15.151336627056843 4.434892757192071
O  -9.084398243626014 10.51365231902624 0.777260321260097
H  -10.02268077732785 10.343974501969587 0.6931938227823586
H  -8.735722360209056 10.375723598212405 -0.10343976793906876
O  -10.806561319168424 -7.574290428796795 -8.49132076142964
H  -11.244634362827412 -7.282684841958389 -7.691764608954195
H  -10.138206189275955 -6.908926299814484 -8.655100635124146
O  5.939806484742139 -7.4532889879938855 2.8592453087767704
H  5.586965462037117 -7.182568023051231 3.7068567897362654
H  6.295422703378637 -6.649761415191559 2.4796239242283806
O  -11.371569233353242 13.575830078605076 -0.6728466722740543
H  -11.67478442496526 12.96354964992981 -1.3432234879935987
H  -11.203849391083502 14.389153267941273 -1.1488795440532709
O  -7.288637196761924 -0.041910991735590285 -14.41308619904474
H  -6.948773625687682 -0.7984645656913532 -13.935225033423613
H  -6.513916432547738 0.48357662932883877 -14.61284192091721
O  -5.234751977798555 -12.71424297563373 -9.260118017268505
H  -4.344589918119431 -12.72187304539354 -8.90828689249323
H  -5.159985842049489 -13.145192275238081 -10.111543044462932
O  -5.93537337014631 0.787136495707784 0.6502505550493354
H  -6.1061877028725755 0.22965936044757357 1.409377394394847
H  -6.204704870667754 0.25868429636752316 -0.10103545350976531
O  10.083716070203456 -4.820464963552399 7.456164525623653
H  10.019148467727243 -5.4369854739371615 8.185524063713572
H  9.175474679958132 -4.615834050313677 7.233778336282498
O  -1.9356909101919686 -9.509245705446375 5.891021219358224
H  -1.388597027734335 -8.727026191746342 5.819938401591392
H  -1.6447293341406743 -9.933044236587032 6.6984665841242395
O  -0.9541460431090223 -5.6079171299682 14.02033486227192
H  -0.3291408867551468 -6.124919303424019 14.528576102226317
H  -0.6297740647606165 -4.709557811300105 14.083304736353819
O  0.06962643081754807 -8.525941548829959 13.054359918558145
H  -0.0505050306313939 -8.775055293823915 13.970734637132693
H  -0.6828363308658718 -8.906699319604515 12.601529748304541
O  4.772774054046744 1.4169597651756405 -8.209724136988893
H  5.057980067353801 2.1515377778073277 -8.753125024132935
H  4.155562306149569 1.8034293279093683 -7.588497297456447
O  9.949859737470982 -0.2555861554676311 -5.452466382858519
H  10.074917521647187 -0.8499294491566236 -4.712636368138101
H  10.378926170874465 -0.6936939166299669 -6.187446271122883
O  -9.207380181024153 -4.075781643228456 -2.714041629180353
H  -9.537957630712906 -4.036448712703102 -1.8165989729894836
H  -8.306186220106039 -3.7592018961708167 -2.6519243258341962
O  14.107357361196051 -13.309447173811916 -1.4263988059007322
H  14.155894560366164 -12.933786723816745 -0.5473338382086381
H  14.951361140115583 -13.097276362165214 -1.8249875898273267
O  0.3623902911937777 -7.785000308554717 -1.411900979206916
H  0.7746346095292047 -8.39951137142323 -2.0190769227601226
H  1.0865777746517031 -7.256095812868519 -1.0771706787213424
O  -0.960874777815147 12.083714192239789 -3.766751394257781
H  -1.234568288222224 12.151772048775968 -2.8520427841845466
H  -1.591885543877675 12.620178532846522 -4.246608951443161
O  -13.762406388654622 2.1680078508979377 14.495574784761336
H  -13.037822502987408 2.745007659374694 14.73698991367116
H  -13.476710119918287 1.7512636618572426 13.682596449411431
O  -12.443776782575952 -2.242969997425308 -3.476190250369088
H  -11.751631099464133 -2.293872305087136 -2.8169671020788227
H  -12.372669304759565 -1.3567601035160788 -3.8308839229280167
O  -10.88957920163299 -4.643874640874104 -4.8215916330438615
H  -11.541221431980983 -3.9644136455464816 -4.648597383795954
H  -10.261363630392545 -4.562160661465588 -4.104026393893009
O  -12.518169947909787 -13.377169717409634 -5.517913270500604
H  -13.020529165522554 -12.58362319936758 -5.702713137925276
H  -13.027876983062699 -14.08226250440649 -5.917005679421134
O  -11.91599176044351 0.4891895406024559 -3.415697898761504
H  -11.933449234794399 0.4742014242493689 -2.45877447247556
H  -12.266705141612444 1.3488100153562212 -3.648688487563974
O  0.763225145189611 -3.589187481287394 13.061594152584997
H  1.5050047942024785 -4.106955499973832 12.748686687104826
H  1.1003046134068115 -2.6948977374057814 13.11502763377354
O  -5.438174730761362 0.38280011127484626 -11.093427711874826
H  -4.795763950777836 0.29216329482733233 -10.389634270528166
H  -5.099576334112231 1.093984542436247 -11.637302404683407
O  -6.928183452982633 2.6629552850433584 2.3017489780799822
H  -7.047415956794932 1.8835638382763582 2.8444868831119114
H  -6.698768136695621 2.3208990818190096 1.4376899423040523
O  -6.909346321493233 -14.555538617236492 -0.9289077235891376
H  -6.494431888567923 -14.23676020861901 -1.7304426201263574
H  -6.1809252528596605 -14.715533828380849 -0.32887761601206555
O  -2.6335895817600226 7.822707918069706 -10.956434047451506
H  -3.1585424260088097 7.582297214320346 -11.719886112518596
H  -1.7317574957058808 7.634798984647676 -11.216474375325447
O  -11.071729965827634 12.591778753968939 -8.938289031151148
H  -11.30110550031465 13.505491640956137 -9.107839835188363
H  -10.23566074817121 12.636342455779348 -8.474355640904573
O  -12.837366599322436 6.491675844844769 2.83867952633235
H  -11.97775555232004 6.587982914867922 2.4287702108095717
H  -12.906117571689776 7.240561402587076 3.4308581953342787
O  4.048786423406923 -7.24333290605915 -9.001523179667581
H  4.9809927517489 -7.333673436181268 -8.803882594681147
H  3.6983669593363855 -8.129996915568412 -8.916288302658035
O  -9.115197431576066 0.4571358658589136 -10.657142740618823
H  -8.369687903522177 0.08121996819007034 -11.125260922575105
H  -9.408466834390119 -0.2416105597360306 -10.07235359835579
O  0.7000605949872964 -4.006621362932884 -11.321426911692225
H  1.4134117665112949 -4.451388631627927 -10.863667112670681
H  0.32492312010560487 -3.4178302659610296 -10.666576722806687
O  -8.183034354064198 -5.251672316931458 1.9367507210253685
H  -7.231820160874478 -5.319107725255204 2.019671618246734
H  -8.511136226008224 -6.097302628855301 2.2425127003487733
O  -5.871714027561254 4.12047927048904 7.072010725008648
H  -5.154367283600928 3.5180119528844034 6.875341889233506
H  -5.537801881611305 4.667179364248273 7.783244538243158
O  -6.062977070675948 4.812664598911396 -13.370031222411555
H  -6.5639493699708105 4.144735524946576 -13.838143771174213
H  -6.719277978582738 5.299420861629905 -12.871463965361528
O  -1.4635522447856086 -15.024261538845645 -9.836196184382429
H  -0.5558176433138428 -15.320652613735676 -9.90254431799433
H  -1.8075803181627808 -15.103685290026423 -10.725897484423133
O  -6.825780584617963 1.7436835219168232 -5.278567180759863
H  -6.794958702051799 2.675119838932305 -5.496989363051563
H  -7.151650037878995 1.7188166807887553 -4.378888021025115
O  -3.0856839802672376 -6.7862735445097275 -14.169714540427677
H  -3.639269462908814 -6.060380824974142 -14.457559505558352
H  -2.211489865001417 -6.404555341598864 -14.09029342724946
O  -0.8524074332656615 5.090030895553866 4.8580446394779955
H  -1.6952182704218433 5.106592231522756 5.3115062869636205
H  -1.0713611987673537 4.870127790060513 3.952542721432337
O  -6.265148497103946 -0.8227718121653524 -4.500789266205755
H  -7.16470889462837 -0.9074680368780539 -4.184799564565857
H  -6.267867665957263 -0.018601642381226302 -5.0199566717383775
O  10.869410677916925 -0.07001143885658664 0.6717159416058582
H  11.750340015996851 -0.26653340759477956 0.353008445724945
H  10.79883135229979 -0.5529027006051234 1.4951638385244748
O  -0.18964320203842444 -10.545188111633287 -8.213260740683682
H  0.21940260130234113 -11.410547664843161 -8.205122850596311
H  0.10862647564320996 -10.131126790418039 -7.40343343040912
O  -0.21476497170349937 2.7224843964586007 13.861292949893102
H  -0.1185133996898318 3.629874232068753 13.572136985172271
H  0.45889439304510715 2.611665624484425 14.532213296046056
O  -7.197108345675782 -2.414712742316912 11.787752329178518
H  -7.187585979544821 -3.054054437723895 12.500060810017226
H  -6.511046167964867 -1.7883053571798346 12.018326237020759
O  3.858304005289196 3.025021884894093 14.578358728671601
H  4.231034494421154 2.257977567575932 14.143678560549422
H  4.149342712302987 3.76662528361601 14.047743311593281
O  12.518979725044765 -3.2083855067063505 -2.3658581928803155
H  12.039492583196942 -3.9905902849784636 -2.092948653896723
H  13.440563257688154 -3.438209805134238 -2.2471297841905002
O  4.797963565799443 -4.7427645496240665 -6.137757639367232
H  5.684606100511147 -4.386811201996158 -6.1960163792252665
H  4.281964709218875 -4.200456844216339 -6.7343139095382085
O  -1.3280663584048518 -3.5500208319269957 -6.694273253051247
H  -2.099220034157069 -3.173957411881644 -6.269855813146861
H  -1.535754664902351 -4.479580023761704 -6.7892318073639535
O  -10.57892066985061 -15.681012682438798 -5.843216680639265
H  -9.691739847940445 -15.60973177772774 -5.490993636708675
H  -10.838051829384792 -14.77776504052375 -6.025498304372246
O  -11.774669190119189 -0.37568770493898274 -6.985298237626907
H  -12.08998407532623 -0.3093658236783122 -7.886636011189222
H  -12.567240573449359 -0.4945979404679822 -6.461921882572632
O  -1.3855845149242292 -5.420598158066746 0.4219218653256106
H  -1.0327230103230824 -4.552511157419087 0.22661295950070426
H  -1.247311782434177 -5.922190714287537 -0.3815191155877246
O  13.787541628811757 -8.911890433931946 0.12396196307970252
H  13.737256123867738 -9.153792309297422 -0.8008010884662309
H  13.484287617666563 -8.00441493794942 0.1514770449981297
O  -8.653931427116868 -3.129589488348003 5.818023112345921
H  -9.126884971218098 -3.0066223984999496 4.994964250080443
H  -7.967646269802456 -2.4625052975791695 5.802427725413294
O  -12.767451964308014 -13.153784887599091 0.06695538472795236
H  -12.992611722991128 -13.60418489874913 -0.747092994573404
H  -12.017090384690903 -12.605304724858401 -0.16186520379461142
O  5.421651756411783 -14.439674983093312 -0.5904233988686415
H  6.285233329789241 -14.737075350560911 -0.30404648225278047
H  5.407503273652948 -13.50594542421005 -0.3802311484866469
O  -2.0384603887265356 2.614262607391906 -10.284998989604688
H  -2.2028636619938444 2.331489780283345 -9.385419675255262
H  -1.0850313966407399 2.6041854818953314 -10.369281012654366
O  -3.7172656219253852 -2.3994121701907876 -5.381738872854108
H  -3.4325026858686396 -2.7861710371867723 -4.553753667753387
H  -4.251919635715932 -1.648295002235089 -5.124445389926101
O  -9.723204851212019 1.0034126756114954 -13.770697298227024
H  -8.8185838088882 0.7117711000774538 -13.88400136709636
H  -10.20724316721359 0.5604349409377194 -14.467625907227264
O  -9.000822044686121 -14.235407193020222 -4.117477074257422
H  -8.065901784255281 -14.088783512699472 -3.973750062799991
H  -9.43396135349019 -13.63582654447036 -3.509920298416172
O  -1.0084954774998114 -6.398489961050656 -4.9598927516549685
H  -1.9448481864703049 -6.463130562728136 -5.1477678373788285
H  -0.6254257056663799 -7.1675945328321635 -5.381754765102045
O  -1.0854965470875184 0.3603578958235442 4.928689829937064
H  -1.613269597738779 -0.07943800346227742 4.262156241289805
H  -0.5910532225853357 1.0221417150777659 4.44516131346065
O  2.964637115760267 -10.864805714090286 -14.701242120185407
H  2.426606065989607 -10.074256687569003 -14.658973018393567
H  3.3698203780142184 -10.925876948086932 -13.836182192096764
O  -8.872075722281261 -3.821422919071422 -11.84037348086411
H  -9.71765907035479 -3.422811114364927 -11.634632669582658
H  -8.239517258729883 -3.1110147233528855 -11.733500488659296
O  5.811574749355602 -3.6280442492213334 2.6265403244208634
H  6.147563488938296 -4.337433570850492 2.0787171704290754
H  6.250947129900675 -2.84322596865056 2.2990589837105166
O  1.1933035259640372 -4.855571989747075 -5.434117309283254
H  0.33768420195221255 -5.273213064386566 -5.335510230587679
H  1.415845991490323 -4.979318636302107 -6.356827160385551
O  -3.0766664689643597 -3.716558880616851 -11.890537593265805
H  -3.5210778190878815 -3.8853571643839278 -11.059732235738522
H  -2.486977448407073 -4.462101515542711 -12.003075983868074
O  -4.387680527033112 2.5266125691123453 -2.6351811288735023
H  -5.338443817587133 2.4379412000385177 -2.7016522087415087
H  -4.254425688672586 3.381464130758923 -2.225664576801094
O  1.8569488488388166 4.907576512055572 0.9549828695288045
H  2.6514289471432457 4.45795820023085 0.6670999108677743
H  1.6867774089890215 5.555541535771135 0.2713054163989729
O  -8.554494113715897 -11.752583530941962 -8.65350600759591
H  -7.85554962842331 -11.727741767599479 -7.999983747768082
H  -8.14205443135933 -11.438241535533816 -9.458064563052126
O  2.903903295030408 -4.98529760964178 9.749926717678894
H  2.237168525938223 -5.386941229316817 9.19281003216743
H  3.7251912302930537 -5.121399540107766 9.27749233839135
O  6.123956447513512 1.1668968102216133 -13.589721245412747
H  6.176458202898788 2.064572271160964 -13.917828214747667
H  5.533051672174731 1.2201082899160585 -12.838567508999281
O  12.20740756115502 -2.5149141090515927 1.5476123624612426
H  12.476056946029502 -2.8324417339367978 2.4097234726197176
H  12.202827752234636 -3.2963157587138534 0.9947811603093509
O  13.48481805505376 -4.684999224986708 -5.332925231086044
H  14.24252462618468 -4.680718339767168 -4.748036970899436
H  13.798028885041667 -4.265941775107684 -6.134499731988194
O  -0.02286189611590348 10.976083233916183 -6.1333303423788745
H  -0.41904460755477124 11.129599705710817 -5.2755985644540795
H  0.1729735685064376 10.039180514932527 -6.1430059185654216
O  -8.503756246445155 -6.266673269790144 -5.271018013354301
H  -9.3775245424152 -5.976567849144256 -5.009102644032772
H  -8.593894511306864 -7.210361757464306 -5.403528323354427
O  3.006743476334716 -5.371344993519321 -10.677481621578718
H  3.7699710282517978 -4.793677372817622 -10.681440763512636
H  3.3224438944895534 -6.1833993860085155 -10.281081873302789
O  -0.4017879072204886 -4.307795118605545 -2.485411790997101
H  0.3705325663417012 -3.7896306013495966 -2.7118151257581893
H  -0.2592369121554689 -5.1512594220873895 -2.9149220159920537
O  -9.028061301155944 3.739833224397449 -4.49816410589105
H  -9.591906653590653 4.135149624982548 -3.8333068183596763
H  -9.577508990826258 3.076043017038498 -4.914963395414997
O  -4.418586628127655 -10.774331412197842 -3.9179461876898607
H  -4.254726246377984 -10.242123691894369 -4.696493918121071
H  -3.587015610972589 -10.768573250955647 -3.4439331732860854
O  -6.581434314242122 7.855117101093443 -1.8652735896883321
H  -5.831070477313137 8.325529054360318 -2.228451999385565
H  -7.3445138623386095 8.291680763044443 -2.243894274752088
O  -7.001904093327104 -1.8607036131996 -10.728534977958308
H  -6.448235447081094 -1.0870203639292257 -10.833877802962693
H  -7.092237979910568 -1.9639860213001454 -9.78122067745977
O  -6.381903090186984 4.434427636524832 -3.4181222034342666
H  -7.219819258028859 3.9787072316534484 -3.498417029359762
H  -6.576075836996239 5.200317297026706 -2.877805793216856
O  -6.499619791084308 14.002681420987063 -10.21249010134438
H  -6.168977421547966 13.692142329745272 -11.0553856744111
H  -5.810574136440718 14.579084679427885 -9.882024943887583
O  -10.862043394132868 11.60837491665742 -5.09112120231417
H  -9.905503859371008 11.573232427722004 -5.085738384618566
H  -11.067961490274811 12.494703633479944 -5.388191891266093
O  2.89592414307672 -9.850662899008311 -8.696061749088589
H  3.7690628782218596 -10.115918269863865 -8.985025740337989
H  2.3295564518684437 -10.031813515067276 -9.446157705266344
O  9.917038715215737 -8.191496068774235 -6.426946914808079
H  10.012460892399897 -9.005343223372082 -6.921698638273275
H  10.673997876947386 -7.664667654865194 -6.683260200819472
O  -5.2981385123842 -3.768742040207265 -7.102609473606059
H  -4.870888963749914 -3.250285413498337 -6.420779289300058
H  -5.596416530608762 -4.558754029933403 -6.651895450360352
O  2.868948828688873 -4.307939484332049 6.084845080723285
H  2.2886428992613843 -5.025778006364211 6.3381921457849035
H  2.308672224015325 -3.5318952136247477 6.09363524427177
O  1.4585541577318941 -12.036492963918274 4.013496318737367
H  1.6436486514166448 -11.108573203881418 3.8688007826690995
H  1.2732747439256296 -12.101002085848078 4.950375159796769
O  -3.2943244882828187 -7.5553598272806965 8.582651179737308
H  -2.8559284830630256 -8.043341884445457 9.279726717473308
H  -3.4010118698280216 -6.672958893246641 8.937923251609291
O  3.3789968664118684 -6.980597788789426 2.094180469899692
H  3.1813657476887 -6.181184213031844 2.5821474017957584
H  4.265223502204224 -7.216324165619544 2.368529291832766
O  -7.133775518240584 -5.943233732139781 -13.096624103424698
H  -6.4243867924914095 -6.364476469644728 -12.611285002695467
H  -7.567245558266686 -5.3845642161299 -12.451469899301056
O  -7.437956917966048 -5.994495209800261 11.481110278693611
H  -8.183306578261577 -5.753670473206166 12.031282234502957
H  -7.42186872554112 -5.32845145334127 10.793826687034498
O  -1.4455216759646818 -7.234116099840535 2.7661125185271818
H  -2.2185052799618656 -6.943021962150386 3.249840129659014
H  -1.2780786584430759 -6.532675481711444 2.1366875857994634
O  12.160478851846651 -2.1557662500264936 -8.444785558204375
H  11.384579368516718 -1.6090880809042043 -8.32087098282763
H  12.83862550509899 -1.7328859799072651 -7.917982706424035
O  -9.503903750837999 -5.7915252409915 6.618293755993787
H  -10.458513374279043 -5.770219190399218 6.551223868121032
H  -9.213147589929923 -5.006361076221777 6.1543865022535424
O  0.7551688376506895 -2.013033377892749 6.512835179350787
H  0.4628526902425845 -1.1389518099153504 6.254446841177388
H  1.0187390914530243 -1.9171564781085366 7.428023789537614
O  -9.606133403619639 -9.706218291975855 -10.505144896402154
H  -8.899324655962356 -9.06083374550222 -10.493654368758774
H  -10.153344858189822 -9.476232041721135 -9.754213608268337
O  6.56344839094258 5.2291407370657215 6.6965829330545095
H  6.724777922301715 6.0706595971086985 6.2699090044852
H  5.834752206918425 4.847633667920464 6.207005484229314
O  1.1871404380376178 -2.828926939286407 9.322592201768591
H  2.022524300025296 -3.283479795837315 9.430977415471007
H  0.55131284095901 -3.384619271681956 9.773326213495459
O  5.3935341681326 -2.9491757110089263 6.572246563632937
H  4.6843025860451215 -3.582894263537566 6.680057555503211
H  5.064367747621823 -2.3289743567622607 5.921684038877567
O  8.561967808998146 -4.385068027676354 -11.682828580961413
H  7.973724293155526 -3.656194847741714 -11.880174228135182
H  9.439773558772943 -4.008241843986094 -11.743581718864712
O  -7.102693320818572 10.309041432929574 8.667350689813311
H  -6.4468342993365955 10.355603238341303 7.971712282999209
H  -7.938569811454941 10.433395085104944 8.217819253304771
O  3.4466251099957637 -0.904463560589702 5.692716123985363
H  3.798119889493033 -0.0333523849183158 5.876695988166032
H  2.587904384899659 -0.9109755545113386 6.115549614904591
O  0.013693761815688004 -0.39730061148095375 8.906717914116497
H  0.864476187417158 0.028564200292843303 8.801645190739286
H  0.2186277687415157 -1.2533288533920484 9.282815710804115
O  5.217964215443099 1.8434358255355456 2.268921033222552
H  5.758903804451166 2.6233108411571777 2.144779292175076
H  5.6722961675604155 1.3414530328321117 2.9455506246034533
O  2.7695107245603396 -6.614521267326609 -0.5251413373651849
H  3.181506907412076 -5.770810351637223 -0.7112673346883291
H  2.9402198934917134 -6.765042862321579 0.4046078115455769
O  2.109217147280187 -11.328396664913305 -11.285398082940144
H  2.629464598142282 -12.066266176002724 -10.967399615501215
H  1.6365133422212659 -11.676244653309471 -12.041562575936815
O  -2.818824875025655 -2.5748818796057584 8.517102435696659
H  -2.227928763582433 -2.4949599049949027 7.768312669291603
H  -3.075502491936621 -1.6747559481696945 8.717406602779178
O  -5.622408735100755 -10.884425589953885 1.7303281685661396
H  -6.41293627730178 -11.057233489081959 1.2190205450772025
H  -5.893229438221147 -11.007970250050331 2.6400669852274854
O  -4.660338007392836 -5.764329021182693 -2.3776128848944174
H  -4.314438067235357 -6.608411428713081 -2.667630076650545
H  -4.701431081516258 -5.836659065886627 -1.424034584643426
O  -3.431639864595481 -4.941991611177153 9.579647884612344
H  -3.281847061539392 -4.02150891803776 9.363996363400908
H  -4.344235951283519 -5.099718155243373 9.337733497533026
O  13.856883267210257 -8.41547269411161 -12.761180450772006
H  13.796444395703782 -8.242126881060956 -11.82174965357288
H  14.605001198845667 -9.006160870303944 -12.848581192699566
O  -2.1102215510170272 -9.460005385262498 10.83482197210256
H  -2.559568598697859 -9.005812508621142 11.547582740078832
H  -2.7351770076468274 -10.122770180082636 10.540874094421813
O  7.168152101661811 -6.240097373451588 14.501331932573308
H  7.833764702424113 -6.926322376930822 14.549154114912966
H  6.3358257821088895 -6.707958757326623 14.568937213989642
O  2.925179193301284 -9.794553116705472 3.397594187414612
H  3.8175063857964364 -9.952958353360156 3.089549039179083
H  2.718139110816724 -8.912147816532777 3.0898164408355626
O  0.8869127816672322 3.7906634030131086 9.828477768896393
H  0.7531130048635439 3.0433051123170847 10.41138861617285
H  1.8239802599843817 3.778262415503206 9.633586498167114
O  -2.6134813253773945 2.2374571876369163 3.338519023990168
H  -3.3090832862831525 2.3276396629390077 2.6871843297278337
H  -1.999493752080566 2.9424786710843516 3.1331028159344116
O  6.618025585772686 -5.523583120617186 -1.5086068735276228
H  5.701773699338835 -5.248050310455983 -1.4803933670380665
H  7.03031029243962 -4.922738465837597 -2.1292830147548436
O  -11.852595676575554 -2.8338470471349924 10.614247959578524
H  -11.593781176660585 -3.0215084211300787 9.712011785308508
H  -12.183873560660338 -3.6678534005756602 10.947294828283615
O  -0.2928611614299893 13.660020373970507 11.719082205168334
H  0.6628416134064795 13.618397983119738 11.685442443470373
H  -0.48156572727804353 14.269380979511245 12.43273624604562
O  -9.247262521059099 7.953399888895795 -14.914948361040814
H  -9.182491603216205 8.60835176298149 -14.219912662928278
H  -8.58295467525238 8.213992205781283 -15.552928440037991
O  -11.944480666578276 2.663060122530421 -13.56675842922753
H  -11.766457979215216 3.6035545975466703 -13.569907407681017
H  -11.078947527899182 2.2549024604052255 -13.58892957069936
O  -9.248730150765375 -7.46854327294049 3.294917253643092
H  -8.455496039765158 -7.9226649146558215 3.579144329216165
H  -9.869876050722567 -8.170085219336245 3.099344967183626
O  -9.078183886546825 -9.40914961736876 8.228946400950294
H  -8.897967514556038 -10.33981944317108 8.361639978130631
H  -9.649151860845919 -9.382355579031893 7.461151179128911
O  -11.366678519046612 -2.8508447572227387 -11.742990429877873
H  -12.25544739331188 -3.192095970228701 -11.643645834772958
H  -11.481663524412667 -1.9050609581715263 -11.835203795560842
O  -2.8149242641693677 -13.334169589345814 10.620690755371449
H  -3.1952091357392653 -13.607306650435465 11.45556284924675
H  -3.374967918387068 -12.61630850067963 10.325295404076204
O  -11.458846024539431 -5.976645216951369 12.126784928405712
H  -11.375765509070405 -6.881827294859589 11.826826790325548
H  -10.577970548608853 -5.7375605548611315 12.415105533071127
O  5.139873065993392 -11.790094103125524 0.017331787766999823
H  5.734008447904285 -11.127226918876454 -0.3345802677591825
H  4.285694026186882 -11.567616169185346 -0.3529567317448723
O  -5.830567413572134 14.036442614921365 7.489619801992271
H  -5.133443334804042 14.622265806955719 7.784680909720441
H  -6.026025425995245 14.32579913991211 6.5983842452272565
O  -4.678010641601907 1.2902032806614208 11.19741450745858
H  -4.136175614434931 0.6895737327726243 10.685661832472688
H  -4.1950270114568236 2.1165604560600144 11.187797725434894
O  -9.254584839790855 -9.062270157482953 12.956507255732967
H  -8.650268336234673 -8.870371573314081 12.239424033407296
H  -8.867485046924887 -8.631180575534286 13.718443849890123
O  -5.882120235184818 -5.468282769169331 8.437605572975531
H  -6.572484800205061 -4.844864516405973 8.663389319740546
H  -6.350876828607184 -6.255670155394794 8.160982705241414
O  -12.21678567792695 -6.484291808593335 -2.3957291318677094
H  -12.99226986438335 -6.215675957965296 -1.903081537572572
H  -12.522669780809759 -7.199479410212975 -2.9535583717883913
O  -4.75323616563807 -13.895189969413648 -11.590183713315223
H  -5.047335896606885 -14.34995438390912 -12.37944065903697
H  -3.8648791423336415 -13.605097638188075 -11.797307080724995
O  0.5873487029220016 9.891565649742294 11.33683112559783
H  -0.08096032152864782 9.493342292069118 10.779145680155079
H  1.3073773243430151 10.09574429324298 10.740088537298544
O  -7.845057157534043 -8.568666180043152 10.583388128462282
H  -8.093255109931563 -8.606391259453295 9.659696380298136
H  -7.743721545380955 -7.634665359252034 10.766705916165582
O  -0.6365892051450011 -4.7744666409163505 9.986453443784908
H  -1.5380333679643132 -4.964069032602678 9.726297326802873
H  -0.1928352376578662 -5.621778855981039 9.949355231443143
O  9.811890416149872 -9.561640499497155 2.1279187658271073
H  8.883722243724346 -9.502484903653635 1.9015643755581895
H  10.265819009906192 -9.546723597601495 1.2853286112290356
O  -9.847730160563136 -4.096540732288872 0.05919197428071957
H  -10.603829380086665 -4.657024511706594 0.23355869720368838
H  -9.1754780274268 -4.4044583132635795 0.6670535404598008
O  1.3409589552665602 2.1975192003789794 3.645610854193242
H  1.8649099756636378 2.668813784454465 2.9978542686896033
H  1.607246023927352 1.2830589982793983 3.5502925104319702
O  -3.527595019284086 -14.206116092226553 7.395876925919228
H  -2.988863728472878 -14.272138667547686 8.184319356706798
H  -2.899241939222784 -14.220857928871403 6.6739441479909996
O  -10.567890107930182 -13.615368181679308 7.582028694396389
H  -9.885866397369368 -13.10023933705631 8.012978555154678
H  -11.274132810293967 -12.990095882448149 7.419278431756249
O  -7.111942790183379 0.9274525043757538 -7.947909825775998
H  -7.148338733233393 -0.010150226664131252 -8.137140650150373
H  -7.223440789469792 0.985268049935252 -6.998985482287994
O  -5.453856614589401 -0.6832056772737238 12.948244621407525
H  -5.038419150244684 -0.04171215612632111 12.371937735831711
H  -5.321017075872554 -0.33518709463007434 13.829986405551589
O  -13.179632725030128 -14.98897552614814 13.901540688077569
H  -12.397899697289196 -14.502427414175559 14.163067472350741
H  -13.910036621133916 -14.429410505527713 14.165413739130194
O  -2.2091766637852985 -3.3804083227228583 3.9359237189006633
H  -2.663721824661579 -4.222357007924293 3.96318099368903
H  -2.2983945844767035 -3.088777401729475 3.0286071151920075
O  -11.886767252224882 12.348659626580202 13.584090514728848
H  -11.572044547102493 12.190228083822392 12.694101236165796
H  -12.063527770531719 13.288974240726905 13.612303923019873
O  -6.138704571762643 3.639188652924486 13.906216045434377
H  -6.139282616337005 3.4056414636330383 14.834487141104113
H  -6.457139278445051 4.541633226473094 13.885601000682652
O  -4.081361625721517 -11.08576887796119 9.656634117557335
H  -4.790205123956436 -10.830299989225693 10.246980111628343
H  -4.50127486817762 -11.172485211645185 8.80083916717508
O  -6.73610286690844 -4.197203865135902 14.532755899979215
H  -5.90918797705013 -3.7479167711655155 14.357871015156023
H  -6.642201903356241 -4.534556473389345 15.42360250718268
O  -7.526406673598166 -7.342645494061633 7.526585746873453
H  -7.921110191758479 -8.179574452621559 7.7715161490146025
H  -8.264445063368308 -6.803095726945802 7.243006419615446
O  -8.956826826642377 -13.13606867877915 14.696687014464938
H  -9.620000313128127 -12.87941022999858 15.337435965544252
H  -9.436262912340151 -13.652389320055727 14.048778158266863
O  13.952270178041974 -15.673498356393043 12.324130916432095
H  14.263254298395447 -15.127126257505395 13.045933006524969
H  14.742033839324014 -15.886981570146885 11.827210271277284
O  3.8885215997286755 -12.139046863734581 7.3216436128956115
H  4.180845023383115 -13.02424729897548 7.538897050727162
H  4.543837826241188 -11.814746961914082 6.703887942937035
O  -1.9232437515378038 -1.1950565158562738 -11.718622244170923
H  -1.6765162656164074 -1.1424470428269697 -12.641980052312407
H  -2.349432286190573 -2.0477842088890794 -11.63230500786884
O  -0.2925804232535363 -13.970627885236075 9.329943148170281
H  0.21477862835498449 -14.253159699341289 10.090859975153808
H  -1.1859623093979648 -13.87381173419271 9.659681361338741
O  -5.721718554140834 -4.767563443541365 5.764912812062234
H  -6.671782037898257 -4.789384572251853 5.6503044965268305
H  -5.576795043540741 -5.133294182376003 6.637535326993044
O  -6.779122801637562 1.5386266021723383 8.61238435352925
H  -5.996723931441115 1.447149890594188 9.156181990496833
H  -7.054712786939491 2.4464833372604367 8.739184035602262
O  -7.791650645764117 -7.670220240020649 -9.637901837267371
H  -8.202640670994107 -6.812248599146429 -9.743749432584437
H  -6.984334228424793 -7.491736630848339 -9.155599386134702
O  6.0610739824700115 -6.018889175951678 -13.018531306064613
H  6.655345609379251 -6.2579076555383795 -12.307234426636578
H  6.637542969001028 -5.820897032846864 -13.756579048188403
O  -10.069585939548471 3.2092679002775633 -8.515338530426892
H  -9.609259424473816 4.042507833750403 -8.615551122463813
H  -9.57058416502801 2.5933710832974293 -9.051901845121929
O  -14.053997698804046 13.58369451860872 -13.732912362884486
H  -14.125495643800893 14.064691122129723 -14.55738926497444
H  -14.199348416469386 12.669152005720022 -13.975228296761632
O  -8.040994138956147 -10.97868471183543 0.4975640994619056
H  -8.6272562954134 -10.86763876301724 -0.25089921425127687
H  -8.58144170274933 -11.401197499308866 1.1651202589187675
O  0.34301394697973875 -7.370978239453829 10.37257466747598
H  -0.4107317126389185 -7.942780905360075 10.227175070895033
H  0.4744244480527112 -7.38353679397335 11.32062815422316
O  1.1665208494015897 1.2418409060122588 -8.127881459261966
H  0.5637516177055975 0.5461018123812779 -8.390270898324442
H  0.9520444458416384 1.411911000482855 -7.21065308742641
O  -13.383165919394251 -5.944400427700715 10.220042366192532
H  -12.67622113249657 -5.901462348050864 10.86395015494146
H  -12.93956442978783 -6.103312204559166 9.386857742947473
O  0.4760468665586412 -15.463571044375648 -1.754048938436358
H  0.9788035142831366 -16.25982747437226 -1.5824584326522735
H  0.994191749263707 -14.762670133644137 -1.3584536342685145
O  9.115578342282566 3.807569740242023 6.396376743279499
H  9.146218554617931 2.900222163059315 6.699713853416175
H  8.208579260219501 4.077953514328216 6.539475068444474
O  -0.5387454721503692 2.5628421191799413 -4.285374901180799
H  -0.9186226109270177 2.550841931842314 -3.406864112541249
H  -0.7992594234482022 1.7263558523705833 -4.670933012800683
O  -9.881324750037969 -11.639491535753297 11.820850835088734
H  -10.80109783522397 -11.566246377227166 12.075575135730158
H  -9.432282429388826 -10.981191418542755 12.351165647972529
O  -10.324624985113118 -2.8810844226930805 8.306450437902294
H  -10.323811312268177 -1.9247533690746554 8.347219355461279
H  -9.804308460928567 -3.088644255892583 7.53029228319408
O  6.5300125926040575 -13.408979909583925 9.269050651090916
H  6.287837726077662 -13.867863711778218 8.464682053416949
H  6.106548597981093 -13.908564404562178 9.96713762880404
O  -0.30016834829425176 7.4636065668238984 -4.876732552882554
H  0.10065682690658169 7.747846955270674 -5.698181535667366
H  -0.022847002715908928 6.552916979688131 -4.776886681728768
O  7.327790036710219 2.1341143220950003 8.78301155878199
H  6.790971498502087 1.7004676673031358 9.446342763114535
H  7.789222237666901 2.8233836772485454 9.260735255895545
O  -5.220296081706049 1.6493208905557166 -14.359922300328394
H  -4.357156027682613 1.5415073228993914 -14.759418648981285
H  -5.058627480151942 2.177438200503084 -13.57813766181031
O  -5.308238802726191 12.16084193092843 9.963721366128166
H  -5.716973570703704 12.17088844381797 9.09823490878612
H  -4.6869890677368895 12.888783856166611 9.944197763140757
O  -7.767129706975386 -3.814052672882612 9.41854337685541
H  -8.610808585290714 -3.463011963089944 9.133572814919257
H  -7.534818880249371 -3.2885965148940572 10.184153823907394
O  -14.774805670414036 -6.800732011414415 5.3672165997554195
H  -15.227112509991356 -7.590993526641457 5.662406557646929
H  -15.014524677618514 -6.1328719018060145 6.009656886783023
O  -3.665422334012216 -5.738093908366116 3.7991686344525326
H  -4.495125876957561 -6.0787593980161505 3.464847073971011
H  -3.7946102107600117 -5.678050454169861 4.7457081882625864
O  -0.5671423416849645 5.32047016073102 -13.951380675743557
H  -1.4565811925520604 5.593202492430213 -14.176652637228994
H  -0.19626096359770331 5.006535013213763 -14.776076727242998
O  -4.197808522572951 -5.646034385381475 0.34466505135193454
H  -3.2559077487299994 -5.571701823887261 0.4980581846829669
H  -4.378727439183599 -6.583542580353582 0.41233026242769966
O  -11.394089664439068 -8.462964019390531 11.00945938721166
H  -10.572989396242374 -8.950687352877127 11.073896568694044
H  -11.805864137665909 -8.790832291464671 10.209974534207404
O  4.909309507666479 0.10932626965298405 -1.866864627591791
H  5.551416454752638 0.5395294135923574 -1.3021914705657747
H  4.134748177891417 0.005858237571729763 -1.314070847261661
O  -13.90753437385482 -1.437985637454191 14.644343100719865
H  -13.795434415355025 -0.5162436988666921 14.411840952835895
H  -14.308897649436055 -1.4192476067878483 15.51312860821801
O  -3.6374063035174835 -2.5253638652867187 13.918583960880738
H  -4.008026365566196 -1.7172215721566475 13.563931096125872
H  -2.930761400969344 -2.751024014371135 13.31363575678779
O  13.522184519464425 -14.379821510405844 2.716577968785277
H  13.32722909495012 -15.242642585291026 3.082315615198362
H  13.316670158569137 -13.767644294370847 3.4231434324549914
O  2.020507830853925 1.0161609323420964 7.658116727399669
H  1.6180263244266397 1.8846053725212357 7.651427772076108
H  2.9505558825754057 1.181487770544409 7.5034897282162785
O  11.971182558127516 -3.708385280485084 -13.136038873697375
H  12.348208018679847 -3.1248885554473693 -12.477544207976443
H  12.699786701704943 -4.2667851131447065 -13.407253695683316
O  0.8111621717574923 -12.33602857791524 -13.49272924065964
H  1.479335859722965 -13.020270197277808 -13.452864721848224
H  0.5936955279453747 -12.266824601856708 -14.422326421886078
O  -14.027785179027955 -12.173947200800924 8.971761365416793
H  -14.351468612669297 -13.020356762848426 8.663456745149656
H  -13.54069077216553 -11.8181097891277 8.2285584146191
O  -1.0352362223860339 4.138970126821542 2.2260071983739422
H  -1.4074730331833274 4.905155669970251 1.7893937297604179
H  -0.16621120672167408 4.039776690279306 1.8371781419572994
O  -4.450493508053758 -8.44768574433017 0.9111354958689711
H  -4.658482829863033 -9.165426326802798 1.509316696762585
H  -4.689641562402055 -8.779564627686208 0.04574745244502249
O  0.9949347795384135 12.095505652720549 5.971938294054326
H  0.45762229919307557 11.418502401085448 5.560606619419372
H  0.5492206111277286 12.287247338928236 6.7970478968741945
O  0.5923141024676899 -11.402973903922426 11.107244533200308
H  -0.21731901083946092 -10.909323029384034 11.23776229720738
H  0.6076531837977337 -11.5952727285233 10.169685081507549
O  -5.540279462894616 -7.543295400853891 13.242499203859776
H  -6.188928384670981 -7.278951156741948 12.590112395516291
H  -4.706014289525675 -7.232108427225855 12.891221338395313
O  -6.993267013573268 -8.527934166208528 4.703064352939318
H  -6.870408529980852 -9.45139840603373 4.483174740654454
H  -6.3930074553353435 -8.372982452140807 5.4323861473955395
O  1.9308218503580834 14.328622908247333 -9.379353345009406
H  1.8934742858100924 13.742345888870155 -8.62363099732482
H  1.5055163336921054 13.839562945091572 -10.083744870191907
O  -5.105251926870196 11.594612942197351 -9.575972577977847
H  -5.883956433971517 11.3823465723051 -10.090554087216383
H  -4.484752004517435 11.947058534779329 -10.213933236206167
O  3.445667250621262 13.722420961896596 13.306039451080364
H  2.9803215150329816 12.887422653977985 13.355668303174848
H  3.8503020845740283 13.823235951977296 14.167630328321065
O  -13.787433119441332 -9.5232953221745 -5.264564666432791
H  -14.407552016338723 -9.694401759304231 -5.973371404338752
H  -12.989997276152067 -9.233966385739476 -5.707979475833956
O  -3.767389870980306 7.362872556483634 5.774751857783718
H  -3.261690291388677 6.55294203033252 5.841925727902881
H  -4.616960536704896 7.0874816376152925 5.430337316042976
O  -3.851332838657378 10.081077226423199 -7.639376161329254
H  -4.174478672676002 10.651555483562415 -6.941978728795148
H  -4.416204005850418 10.27339151005527 -8.38781963387906
O  -12.30709073027718 3.170284741581547 -4.0399173957454275
H  -11.81165641161839 3.829720925547151 -3.5542008055517837
H  -11.694423942794103 2.848859237164934 -4.70139823707271
O  -0.9917452221377545 -0.040562465124860156 -9.192116776009573
H  -0.5757495789946873 -0.901053333832869 -9.244413435305155
H  -1.617378963411289 -0.03203481466022008 -9.916507245145514
O  -12.850080336958836 -10.948308822932976 -2.9359617893276653
H  -13.179317875082969 -10.510614258536751 -3.7209827843369183
H  -13.096861003050282 -10.36767665335619 -2.2161024716041435
O  -5.210818452073505 12.464459419177377 -6.420639889050182
H  -5.551768483929989 12.313144520548336 -7.302166251700388
H  -5.981235872914902 12.695659405141448 -5.901760890658785
O  -3.12644664396149 4.747888043531654 6.288534599309472
H  -3.504620181311764 3.9275209902390977 5.971967822250626
H  -2.8094783609049605 4.542398514416176 7.168044128409328
O  13.08648043730545 10.264643875024369 -2.8006228769655794
H  13.06438448522092 10.858877701818246 -2.050536362746894
H  12.165690877407895 10.109991271213467 -3.011480671072257
O  -1.12844775363454 -8.868057414420363 -12.517499755813938
H  -1.9677478515219757 -8.468366635693359 -12.74565426027111
H  -1.3036347797881387 -9.348922213971898 -11.708605200734555
O  -9.918628930094041 13.865856582496958 3.2522113089916926
H  -9.878604236711636 13.931469672285509 4.206320735203068
H  -10.681811406984977 14.389198970036725 3.007472462079011
O  -4.393292638420386 4.274847851114177 -8.903205653682138
H  -5.146883392486339 3.957913517011254 -9.401086617437935
H  -4.77187458490504 4.833746875633905 -8.224575090706859
O  -1.888328783683142 -10.511065198795375 -10.374624067922857
H  -1.220475652111785 -10.741176442933861 -9.728672939130032
H  -2.6499328469383543 -11.036805821144203 -10.130108424941117
O  -11.607914316201233 8.971577722427158 4.370646976689731
H  -10.79671921227355 8.58862798577547 4.7046287926311265
H  -11.353984125994534 9.84215145072538 4.064293107910698
O  -14.928491381832105 5.862348956545141 -10.269684995414476
H  -14.133296013406632 5.762965023818402 -10.793153247334113
H  -15.5694106076177 5.293783044477422 -10.696518921514961
O  0.858856737425362 10.19272772236155 -10.285714435695315
H  0.7185428030082037 9.301919109633392 -10.606656589540941
H  -0.009888517035793656 10.490002807715303 -10.015268401713493
O  -0.7435708226239324 4.746376051124266 -1.8127882163409883
H  -0.40659654011807456 5.625614972483211 -1.9848902294453619
H  0.013388723793981965 4.258490549055361 -1.48842448104508
O  2.7162494374145036 5.834110649603481 6.465923399770833
H  2.437467299416767 6.545529532627279 7.042460946881115
H  2.1746155871230703 5.088741971013457 6.725326861607403
O  -2.133336445837916 9.362824019781355 6.840097557492775
H  -2.6960494430138704 8.686420362823215 6.463183739120106
H  -1.7557405683231342 9.81027653096619 6.082839705545643
O  -10.264865703340849 6.806501774214768 1.5738393619663227
H  -9.82753112592804 7.571462784756983 1.9477443907727687
H  -9.761642311133665 6.059797268181964 1.8985399148194972
O  -9.176586154040864 5.796591863049633 -8.123307319436607
H  -8.516010016974189 5.659717439869311 -7.444237065166491
H  -9.940554201560408 6.128316595515977 -7.651562287606208
O  2.47220363135421 12.027946272935422 -7.304882669820081
H  1.777029985683964 11.547490453640217 -6.8552965725169415
H  2.9157803336997006 11.366902472756962 -7.836383050063854
O  -12.663092914033484 3.080457981027185 -9.447075615761364
H  -13.160195711685684 3.014020893692435 -8.631780103195407
H  -11.748233242685043 3.117595323543169 -9.167997758616757
O  -0.6944311209233767 13.150484017816455 -7.581680175466436
H  -0.46864161970207785 12.381980218787024 -7.057606838200623
H  -0.7154620419068581 12.828637511434113 -8.482903997560273
O  9.367659656204463 9.126738537252175 -0.843272100846994
H  9.56373753069468 8.224204149624024 -1.0947020057935473
H  9.535294082297064 9.63819125514755 -1.6348191097879627
O  -8.438884390999965 3.3213217704001883 -12.54293743726996
H  -8.554110141208938 3.8896601709458007 -13.304479517375444
H  -8.923638716659475 2.5255090861619385 -12.76186040586225
O  -9.135688715235897 11.732245131705536 14.908473942139358
H  -9.630166102705099 12.310634169383555 14.327793233666199
H  -9.739328873576724 11.53920370473887 15.625820035409745
O  1.4397817690329124 3.414723772195734 6.212268968335213
H  1.4785398259362827 2.8142517542704546 5.467847703505161
H  0.6468826217980088 3.9300233228429384 6.063914102441615
O  -7.716475944993432 7.472477379664145 -11.638408817819473
H  -7.11542666118257 8.197206450700657 -11.81085992057721
H  -7.458381897541232 7.146631347768137 -10.776177017788457
O  -4.620770879624799 7.8441029102224125 2.0987908363244863
H  -5.081295768270104 7.743017477989616 2.9318156937842703
H  -4.357989608418491 6.955081470783323 1.8604240296206078
O  0.5910384366362066 9.408921846477016 -1.0218239305083645
H  1.2022090276764135 9.735397418228386 -1.6822147697199155
H  0.2425741040909804 8.599918027008272 -1.396413412269599
O  -5.76949190894098 -10.232613869020284 -9.126212463869692
H  -5.9357294451342755 -9.811613651784022 -9.969631546808156
H  -5.651439656468941 -11.158321516901392 -9.33919337183578
O  -10.66945351074712 4.505864878963342 -2.407185784694148
H  -10.99870508854044 5.307127315772191 -1.999995710285266
H  -10.079675598962208 4.129536040663528 -1.7539090661040113
O  -11.71487447758333 -0.11150656622356422 -11.797881772146617
H  -11.326613035258841 0.4149252178511193 -12.496705412228584
H  -11.166652384610586 0.06324525297895407 -11.032933284155856
O  -10.804028925234752 2.179953715747937 -6.109318258881206
H  -10.366813453693348 2.59156885311966 -6.854735900843512
H  -10.862946239697774 1.2545334583293726 -6.346716548751161
O  -3.746300624454653 13.765534486241124 -0.7998038675784048
H  -3.024883783621979 13.213064537103351 -0.4988611024550861
H  -3.8034120843255366 14.462685393282626 -0.1463891870117813
O  -3.6940372060074127 13.780588826794958 -14.2144076358026
H  -3.660651463616781 13.35483029781952 -15.071056290752257
H  -4.408476142541067 14.413290693752803 -14.288550769874984
O  -4.8193496579155495 -1.2898286270075345 2.9481765344697357
H  -4.844758248952523 -2.1568634892476255 2.5434089443897268
H  -4.232930573220587 -0.7807937679836121 2.3885087578188244
O  -8.223604489959737 9.249835110121833 -7.9425676838111645
H  -7.643255653596549 8.628131935302665 -8.38178544457343
H  -8.935184319742493 9.395518401194169 -8.5659956069635
O  -14.172358986162672 2.161919823225489 -11.917660089800483
H  -13.809416046458248 2.3220996072664093 -11.046542009331095
H  -13.414115413669467 2.1845094245961336 -12.501430802923378
O  -8.056507281919595 10.438149430113484 -1.971967404818837
H  -8.224034493689118 11.3684652717251 -1.821372189155931
H  -7.251260268196527 10.257718214126738 -1.4869378448897734
O  -5.012661822413707 9.873620874989475 -3.445090344168145
H  -4.807028880522908 10.70207374465625 -3.0119474269138347
H  -5.497051721739225 10.12732909598653 -4.230730474792391
O  -2.095782293352771 -13.529510391059535 -5.3912819100398846
H  -1.4378324076330515 -14.203333648987499 -5.22012112079741
H  -2.3146144529092543 -13.182586040503157 -4.526419012377928
O  -4.032196078932582 6.632374688846446 -13.091914178944869
H  -4.722703160161962 5.969478170323454 -13.092079465170128
H  -4.435050718295473 7.3986438431003805 -13.50029093342547
O  -14.342589868308497 -0.8883727690792464 -12.522849517108462
H  -14.767719321407093 -0.04047220007314684 -12.651540713406336
H  -13.406645755507412 -0.6881514460907401 -12.510525136755845
O  0.9164323482485999 8.293125887272062 -7.072549408163065
H  1.0253867925987274 8.146694411547584 -8.012186892936242
H  1.7792853754475746 8.11206825256902 -6.699810039184335
O  -7.238868603560084 -0.0330501563042766 3.177373335394904
H  -7.632745541231763 0.1666852093794757 4.026607456519882
H  -6.380333575349835 -0.3984418136118899 3.39100477718983
O  -10.580220555333087 6.9978290845437074 -4.092482205325542
H  -10.943141136330055 7.570217417127793 -3.4165442648104465
H  -9.945126158771556 7.544924657053443 -4.554622219621799
O  -3.3510594570918677 7.609935842223596 -3.700088890705052
H  -3.249185181795982 7.4149397567526325 -4.631662832752217
H  -3.8422357575825528 8.431238669576608 -3.679128012011849
O  -11.673200672309065 6.702964290408727 -0.8632288255956941
H  -11.172670481555944 7.478413500595033 -1.1169607734923586
H  -11.48984541071981 6.593693902432288 0.06986960499797583
O  5.176054155893812 -12.645159582494578 -13.573573155709099
H  5.489312291212106 -13.033473397133097 -14.390465788088129
H  4.265608928420138 -12.9325661533122 -13.504879621525575
O  13.216454962180542 -13.201003017270576 5.206537724601644
H  12.309506869066048 -13.207500778356007 5.5125357414485165
H  13.530311652591173 -12.318723829209254 5.404803362107735
O  4.289056223873945 13.271538531868464 -5.668832968721915
H  3.697338218181768 13.72035724027798 -5.064959290260401
H  3.7296845308487114 13.002789710806912 -6.397605382468118
O  -13.961958210215176 -15.620188675802149 10.716897519689862
H  -13.087730944375057 -15.589276710006356 10.32830648936401
H  -13.807036426135763 -15.573283993153735 11.66031208518091
O  -14.174475636337899 1.0576005044845922 0.9894774477231948
H  -15.048911966937133 0.7878602858662929 1.270249898304183
H  -14.319631322526368 1.8630093033837556 0.49301159367045316
O  -8.23075316845156 8.556785992648754 -5.019510315108762
H  -8.211735241358069 9.477490692709168 -4.758410670235226
H  -8.419382771084923 8.577245484739755 -5.957717186225743
O  -4.547935471383438 -14.141753220936659 0.6634256760354087
H  -4.49966981095331 -14.108398543415607 1.618825980791518
H  -4.020683261509706 -13.398533985296297 0.3704032779584394
O  -3.6644545752092377 3.6266231995357954 10.349667501212485
H  -3.0198562072926016 3.5090539103815015 9.651883682867348
H  -3.2231485379687133 4.181104494692867 10.993120161190948
O  -11.595200713488383 3.743545850786184 3.209751384768036
H  -12.509622991305186 3.8738926121237744 3.460895706739464
H  -11.0955019914033 4.244172666099772 3.8546589981149912
O  11.357140820578982 -7.110088431861233 -0.2315064306091964
H  11.161094768782277 -6.321438619125589 0.2742892487558155
H  10.551294492515417 -7.625339249038429 -0.1946263307983542
O  -11.825061997534984 6.319713282763568 -6.840749182197195
H  -11.489236807640513 6.784862586149752 -6.074531577199082
H  -12.773830987766138 6.438663255208437 -6.796929574160605
O  0.4431002165958597 7.5657309226676155 4.93468675709125
H  1.1878652032003048 7.386263887073028 4.360797788143137
H  -0.10766633340517119 6.786054364943567 4.86402896521451
O  -7.864385853442389 5.858768786722434 -5.6985396666777515
H  -8.387604323385036 6.550895697094602 -5.294269183625983
H  -8.220792920841092 5.046848828201233 -5.337995863402002
O  -2.525433010421666 10.382552540108803 14.240580311062189
H  -3.1521006645004537 10.265979432983015 14.954674291462378
H  -3.0639810947781414 10.402287063333164 13.449499809313831
O  -2.895832503552278 13.26557255812137 -5.337153584263168
H  -3.5972422051165394 12.993464437662345 -5.928941935068713
H  -2.16777977364168 13.491824621699058 -5.915929082201634
O  -3.7042418019673597 10.436576698144503 1.5251819551478145
H  -3.0115624082783703 10.225602734516688 0.8991491324881882
H  -4.000085168447239 9.586629324115405 1.8512157182893798
O  -4.054174225660242 2.810801136361115 -12.21066644283433
H  -4.640671222974529 3.517365650110573 -11.940444846975161
H  -3.336976535030704 2.8388041626457516 -11.577361497415524
O  -1.3037752007290462 -15.20199634251166 -13.175962476519983
H  -2.0600966615104386 -15.726858388618023 -13.438125653445915
H  -1.68122842131495 -14.439436396412429 -12.73748414673409
O  -11.793064781273895 -15.014388084164434 -10.43104748074511
H  -10.972364768073625 -15.491540145911038 -10.553559721445378
H  -11.533595851585034 -14.194697473888622 -10.010315940723281
O  -5.4947896302473485 5.864234657798258 -7.076641085037761
H  -6.379108073656182 5.708328844399561 -6.745120167427991
H  -4.966230848896534 6.008571447706906 -6.291768893816054
O  13.883106829238208 8.300702136369893 -4.55316696830808
H  13.017487881583449 7.895059359712876 -4.504283167060558
H  13.832331879168066 9.04728357447738 -3.956283469176058
O  -5.129634391634786 0.29356730521989893 6.794847850226482
H  -5.996922634983008 0.48281164636135937 7.152939365224041
H  -5.223024367462158 -0.5642304887617194 6.3804891796612475
O  -6.967547161678933 5.680890170234272 -0.31425355179986203
H  -6.281800909941832 5.542080318509559 0.33898128660822113
H  -6.729694827064344 6.50420215944272 -0.7406518235615709
O  10.52773604671653 9.554318449319076 -6.388517415525805
H  9.650050614654583 9.703370426137997 -6.740204266815363
H  11.116264739021222 9.77609868582922 -7.110098565393919
O  9.537165192550694 5.214107738040247 4.007836984824034
H  10.270507029888314 4.693935349058599 3.67941304207813
H  9.376802408906055 4.873897985197485 4.888048864151827
O  -6.7149958183915555 4.112357217325283 10.26830722413652
H  -6.85203141402307 3.33338278299695 10.807428664083147
H  -5.7655287307483585 4.233379059128984 10.25841712271431
O  -1.9827965867316721 -14.33469114886974 -2.44191327676089
H  -1.2931618983365745 -14.941855407872511 -2.1736085806238856
H  -2.7567890274720597 -14.621223849650079 -1.957076640482629
O  14.900113031238234 11.236768488106804 -6.007923216062375
H  14.257097034602923 10.625391824742426 -6.367062262090362
H  15.443329589840609 10.701410820478971 -5.42952906931672
O  -1.7258496840485962 10.423647650012715 -9.42509065821307
H  -2.264139025457115 10.299814944386023 -8.64333500792296
H  -1.8905736384615746 9.644270391352297 -9.955815594826076
O  -1.0121994562228216 7.549842694053517 -2.299088383778315
H  -1.8864513564099104 7.590668095061043 -2.686707723426372
H  -0.41569723006541504 7.624761315169277 -3.04394014434328
O  -6.911047172860934 7.607822079172975 9.539868648873428
H  -6.348710934405281 7.295799218106724 8.830889424982537
H  -6.9143608581580285 8.560019001344607 9.442186041854683
O  13.798070204823842 13.386986449028457 4.638191348017521
H  14.279685904671053 13.146066207009397 5.4295418427185185
H  12.876536201771149 13.308236566436483 4.884778833561267
O  -7.8301638082000835 -13.481210162108574 4.800512479791578
H  -7.142225937164578 -13.97441657172694 4.353611177573905
H  -8.44201351799622 -14.149175937251224 5.109856150613887
O  1.700498132564785 -3.3364798871924006 -13.789645887616144
H  0.9675785830213859 -2.7720706498283394 -14.035619458335795
H  1.4805970595226623 -3.6461218726943128 -12.91101217001437
O  -3.511528658640684 0.21090603286978357 8.89181001171769
H  -2.762589504653161 0.7011907225840883 8.552777686601694
H  -4.153391002689039 0.23203517897651954 8.182022620103197
O  -0.5202488949700786 -2.775170204870828 -9.135846556948305
H  -0.5479151874952614 -3.1001585526930473 -8.235930449272121
H  -1.3714375269065637 -3.013300913165851 -9.503274821302535
O  -4.02406034738893 4.1333031027777105 -5.0967000080987805
H  -4.8407923044360635 4.040360406212874 -4.606248770654554
H  -3.3366307248687344 4.054009974643263 -4.435349144540146
O  4.071078706974153 -0.899538648870781 -9.406761101684403
H  4.545460795178078 -0.2520407609494049 -8.885282463247508
H  3.696561298708674 -1.4994357813504344 -8.761709171863126
O  -8.22296668167017 12.928601738000022 -0.7945028705050688
H  -7.62829390549067 13.533336262067719 -0.3507773973925392
H  -8.94200564204791 12.801658342150475 -0.17555198511395642
O  -5.209199441388316 7.0044973655290015 11.71855585808537
H  -5.8113569916171794 7.172035311796278 10.99359436112138
H  -4.728286969818914 7.825162114385708 11.825627868855337
O  12.397124843586019 -15.32017000108564 -2.163728403654975
H  12.708833230105691 -15.902172000236563 -1.4706602933115627
H  12.899865195099219 -14.514379641284972 -2.044623887241659
O  -3.0231599807403158 2.7537294300833577 -7.239870938951033
H  -3.3036613908876067 3.1511783028250626 -6.415501359648712
H  -3.3956030721471757 3.3181129119916997 -7.9173584147243306
O  9.723860289997518 3.899832076472991 -2.5200464820525803
H  9.70982550710541 3.183376392113975 -1.8854394161951462
H  9.384925340734787 3.512323268873556 -3.327011087855394
O  -13.524626868790419 14.121368894810495 0.9453789992686443
H  -13.909812218498654 14.936934460992708 0.6248842185851112
H  -12.98858344446945 13.806802503124675 0.21741108563414227
O  -8.146665305662042 4.970923663838221 2.9449160012213964
H  -7.839753297367839 4.145631371823789 2.569510217137373
H  -8.568490536942443 4.71876040695207 3.7663227317448076
O  10.311686997180153 -0.7087039116490147 -13.659877194791985
H  10.259610210643508 -1.6558873030783534 -13.787797021721937
H  9.43573903690502 -0.388851752432561 -13.875843900447649
O  3.8945978448778424 11.925315862914763 -11.679162100271538
H  4.737148809243732 11.857718644161622 -11.229973566045313
H  3.300057018989923 12.285572100856738 -11.021158680680301
O  -6.638980219311099 -11.45796763969513 -13.161439422030414
H  -6.449322146474623 -10.576912549560847 -12.838943539306648
H  -7.342737315750086 -11.774508653149343 -12.595083008779444
O  -3.7752616090479902 13.178965270017722 -11.520152179958757
H  -2.9812991556945514 13.60290092852365 -11.194369996699008
H  -3.7824394022110814 13.371127533131924 -12.457837625477397
O  -8.846946550783395 7.842685433081068 5.061914664406723
H  -8.458800766166823 7.892338234866275 4.188353390095287
H  -8.193331648850942 8.239329866945768 5.637842267385899
O  -4.740364757356666 12.776219590960707 -3.1338358887011903
H  -4.143981013421719 13.123650069940002 -3.79704802901808
H  -4.475742485638462 13.209651558211824 -2.3224521115076344
O  2.4991225961410595 6.748311424368975 12.415555594664118
H  2.6535650756571716 7.47975688539412 13.013357325076456
H  2.7799764487894585 7.0738902259356475 11.560364733955051
O  -13.319771215391004 12.814415356956463 -7.356814674084208
H  -12.612199999087805 12.730515620654124 -7.995982616744797
H  -14.0387178433479 12.30151666436237 -7.725979309581749
O  10.984213385544589 7.150331797552434 -1.8217774624876522
H  11.038777426576544 7.288081430418681 -2.767441068051931
H  11.475697667771534 6.343462022213755 -1.6680367171202335
O  4.332668351396379 11.085092323362442 -0.9764309949654305
H  4.845471973439829 11.23464526515767 -0.18213998177387636
H  4.372451319181101 10.138535220334004 -1.113101463604445
O  -11.601080174877822 9.097476272901012 -5.920699773354655
H  -11.438182438507793 9.997230043757506 -5.6376108648252
H  -12.228843952691815 9.18162448582477 -6.63837906687217
O  -13.506692330779629 11.0834241783676 -14.665677950065701
H  -12.59974202062719 10.862144115215088 -14.877120895994318
H  -13.902590322093785 10.251334164592077 -14.40659718994288
O  14.697758526733327 12.24162826991526 0.3253466730587345
H  15.232250779903255 11.485615877111616 0.08245751305772236
H  15.325904717572971 12.956532862292304 0.42818459188837393
O  7.411810983771959 -0.9785105503511617 -6.295962742210385
H  6.88882901724477 -0.7894467419032697 -5.5168757189325675
H  8.301102356681431 -0.7168690670436441 -6.057349165273141
O  -13.467352283580018 3.439674326960814 -1.3656296155536116
H  -14.073448248775705 3.8520299650291108 -1.9811313292345358
H  -12.826903902342078 2.995058675616975 -1.9209445211406597
O  -11.06065476860132 11.286407990692185 3.1775331571106893
H  -11.464483703238319 11.153857427491094 2.3198709913587097
H  -10.678405783978906 12.162681216049906 3.129964269235707
O  -1.6631500060356632 6.375135230965988 0.6436450654967735
H  -2.614610268294121 6.270590397968702 0.6487045174426695
H  -1.43582100194334 6.458696018471667 -0.2824062125149676
O  -1.981688298022219 5.7468926772729745 -8.611705095048611
H  -1.6469542145185645 5.877522095347278 -9.498903437749888
H  -2.889575954435735 5.470287619686763 -8.736049360163886
O  -11.527505689414836 -9.41678857690855 -13.088299605881101
H  -11.119108084790456 -8.806878518744837 -13.702671617210687
H  -10.92558275085219 -9.447408068600176 -12.344671289060116
O  1.9969849866140146 7.971044386131055 -14.854380700727713
H  2.6347657329585665 8.658883744011307 -14.663738134231078
H  1.3474190739823266 8.394848920319234 -15.415349231721976
O  -7.770311962641792 6.804494715057796 13.08953803193054
H  -8.268073719319535 6.562762479559189 12.308493468075639
H  -6.871401188213304 6.910194054783087 12.778059429109463
O  3.230603389477262 -2.9775729158388597 -7.562400821380683
H  2.7656624617519467 -3.6612695421729025 -8.044708511224757
H  2.5501094569722085 -2.539221781817366 -7.051511261942212
O  -14.897250748215258 -12.116604837826266 -9.090001520765384
H  -14.876324336517468 -13.048777028403473 -9.306447687803058
H  -14.682881579351907 -12.081823411709902 -8.157763373801046
O  0.36935264929728734 5.215018968588232 13.133173935630735
H  -0.24340329603722133 5.945736874364105 13.21571692111764
H  1.212619666162276 5.628631616848789 12.948628097737089
O  5.009676132225732 -15.262683351055571 11.27578667527143
H  4.520196488606031 -15.906919576143892 11.787256337698476
H  5.142666106728941 -14.529832009133186 11.877014109892931
O  11.432085487928932 7.546440283813731 7.104561511963947
H  10.992770677884495 8.396067118442955 7.067567047906428
H  12.110236954915583 7.597388025218956 6.43095423298983
O  -6.331834464030143 -10.688522177219227 11.24724526105829
H  -6.62906821718494 -10.776068630456514 12.152905001429055
H  -6.656559491927327 -9.831883937710735 10.969835034703305
O  -9.902582464541972 -14.592610626335764 12.573862054878358
H  -9.968865775682932 -13.781091052772574 12.070598351433171
H  -10.215541942836852 -15.27178367832009 11.97635709153408
O  -2.3501715021818916 6.3571119098545905 9.539982379160275
H  -2.540274042431661 6.2440487573036805 10.471276961203568
H  -1.9832137343279996 5.516515314738363 9.266173665442007
O  -10.225917448021406 10.81394642328491 -12.922957237997018
H  -10.09734897165319 10.120551044367241 -12.275728649168204
H  -11.03859116621772 11.243601705869155 -12.656143413921527
O  -5.733729580670012 10.809525053967414 -0.3424053900478185
H  -4.929381605396819 10.476249938812236 0.0553179850630444
H  -5.718759424900435 11.749557009030907 -0.16255081347802613
O  8.393690713314852 13.749306728480985 1.9954103197745279
H  8.411133745753173 12.824682471541312 1.7484334485588893
H  8.27761588192104 14.216543427036143 1.1680963818661119
O  1.309972040040113 7.912675863964671 7.536117168563813
H  0.9622061063773969 7.809101616910544 6.6503615128956
H  0.5354914072883694 8.034292375410224 8.08531751857611
O  -7.983863741185849 0.3734910753601287 5.785268106874925
H  -8.433093526790863 -0.09842265515497599 6.486496943627912
H  -8.047964990470998 1.2948581794911278 6.036675227065853
O  1.4618059178393694 12.29477025260325 1.021577613022185
H  1.268529310794345 12.830140978723495 1.7911581413621396
H  1.911162824578847 12.890170731354711 0.4217372250143274
O  -0.7975697360535074 8.567620556588668 9.104597091803772
H  -1.3803005057730442 7.878952175912666 9.424585470181055
H  -1.2491665574526718 8.928911167860935 8.34186433655719
O  -1.4312370657644884 1.3686128719707935 7.414876339641272
H  -0.8739626306785944 0.7969735542712222 7.9429914267927595
H  -1.2833523495499461 1.0820192217325688 6.513640498603738
O  -1.502377842186577 3.8563835668021573 8.555618841933148
H  -1.5125987484459777 3.024348337727237 8.082496488338606
H  -0.5820394741381061 3.9934979930300836 8.780137823837618
O  -9.478615140448793 5.2209457897094484 -14.343070971863064
H  -10.392487601449169 5.193993489582111 -14.059623358783824
H  -9.268776866829038 6.153768258554134 -14.388259370375739
O  -11.047248436117727 8.082444656420867 12.91852856766167
H  -11.255690245996743 7.152325890262826 12.83099032714726
H  -10.24768555901699 8.100737857343919 13.444452911250874
O  8.368152125600684 9.759500368214058 11.26314399939515
H  8.999769181778992 10.107084044722994 10.63347953876033
H  7.716583859399224 10.454274726355415 11.357902833103912
O  6.165293581019188 11.562303548419079 11.263843419729156
H  5.793804700713063 11.720282246187349 10.395931791924976
H  6.57522231243345 12.39318952783533 11.504298769405448
O  -0.3268707346095217 10.109921523688978 4.585891437602177
H  -0.19681032183905678 10.307008402133826 3.6582746513201485
H  0.19615512835643847 9.323144472797724 4.739701936843701
O  -3.2348395209217418 13.922441921358859 10.082371476905722
H  -3.4471683390455095 14.52826876072534 10.792387085547348
H  -2.3414635828511883 13.635212358525786 10.271078822625588
O  -9.34785131219155 9.890044452264972 7.075768617806684
H  -8.878173341823592 10.305750850478487 6.352703858983009
H  -9.550012332564165 9.010585418786063 6.756527985850788
O  -6.553931055554854 -13.064843092198803 9.930170100470013
H  -6.32361994298679 -13.815746925843763 10.477282588777783
H  -6.240698995958888 -12.305163652270625 10.421092371516087
O  -11.426576711283703 5.389407923096191 12.885242954002551
H  -12.24817882050526 5.141078815547999 12.461527861889515
H  -10.756100140362543 4.888177614718517 12.421064974530474
O  9.561198286134612 1.3813592450407008 7.3490077555304065
H  10.014363601672526 0.5405754788906652 7.41190216060224
H  8.826003401183213 1.3038039866501627 7.9570418942550605
O  -3.2799847953077426 4.449134051296343 14.784612487557265
H  -3.9936484509759125 4.193946226495146 14.19997994358718
H  -2.7431881899153714 3.6608444295647136 14.866348205127906
O  -4.2892879130413615 5.490800473326606 0.7091821092141881
H  -4.55343876932104 4.653915075965333 1.0913849449278115
H  -4.259336004223441 5.325472570467217 -0.23315616259251054
O  -7.16521948588877 1.9792853069126226 11.97790495444102
H  -6.832940358258616 2.554261574911172 12.667270404254946
H  -6.396562970318314 1.4929093115814929 11.67984891431753
O  -0.26450680262215326 12.028560456559633 14.44121362541059
H  -0.7937852601576612 11.234687526794264 14.5177769102927
H  -0.37079232254348937 12.30087749686766 13.529743017749388
O  -0.3924446773783074 13.178306258517598 8.488932746611795
H  0.32883398882573345 12.738228313166708 8.938733078439169
H  -0.13434159497633763 14.09976350018005 8.465884938477698
O  -6.945309425488514 10.007471403638695 14.10262693828454
H  -7.544613913618193 10.629913861144919 14.514490226790075
H  -7.237675950335155 9.959171241205592 13.192450713438282
O  2.2779115595992208 10.164085863321677 9.144494342923899
H  3.14556246124992 10.405734878119365 8.820427193509783
H  2.0467113330270417 9.378644699507863 8.648651137628988
O  1.422132780906028 9.433267395353504 1.5400718548818324
H  1.0967299246580324 9.306907694051363 0.6487929659532119
H  1.6612778873242102 10.359285444827549 1.579213149467943
O  -15.056212484192777 10.07666679271749 8.00723590633569
H  -15.33453399461563 9.173165680246697 8.15708492173899
H  -14.145492290445743 10.003052394878347 7.7219264253339155
O  -6.212125712479036 9.65877867298821 -12.289451423202511
H  -5.4427059466225955 10.160624840364259 -12.558478371697916
H  -6.749795092957554 10.285145937542692 -11.80488198750961
O  11.762990296871907 -12.025300124110132 7.673483834110579
H  11.857532310734161 -12.841639791967461 8.164282372326426
H  12.315648254302243 -11.398907703654578 8.140852605534299
O  -9.469727876425964 1.38284898123983 10.443874072050722
H  -9.472327882930166 0.475271584640957 10.748058818490032
H  -8.740761338446628 1.7905730873698826 10.911421599692808
O  -5.068033893832643 -12.050107115439125 6.863344132274259
H  -5.881887753361632 -12.387780034923763 7.237310368175103
H  -4.553777821547643 -12.831983695268516 6.662243269895059
O  -3.621024511531785 13.357337737823752 12.871163814327886
H  -4.518941431685899 13.268639543290723 13.19070987611693
H  -3.5305245843747417 12.666497209913832 12.21482474113548
O  -6.475575500117033 -2.9369778392131907 -2.256606383102563
H  -5.995801321087603 -2.503045918377951 -2.962121567938602
H  -5.903134697501862 -3.653469202211046 -1.9824102761496594
O  -10.06413310077917 6.390274455043723 -10.646222798683132
H  -9.212574049851852 6.582372185584805 -11.038877221200039
H  -9.854501084679562 5.969776773821344 -9.812275576893901
O  -13.683386087623406 8.230329291655567 -12.750695790838119
H  -13.058452129054816 7.598593856835034 -13.10650436105146
H  -13.838868555381154 7.934884820749559 -11.85360626484398
O  -13.667575816837283 5.279251514640282 7.330328109254839
H  -13.306979493101164 4.755095467348155 6.6151619885441
H  -13.424631753161961 6.17952916328897 7.114202710271133
O  -7.533931746771721 10.589888622386166 5.109225245594739
H  -7.554429636131255 11.016891589454861 4.252790686819995
H  -6.6225098807998855 10.663434264521616 5.392303099848047
O  -4.118610123211411 -13.446857429756369 13.129386743252681
H  -5.012814087764969 -13.782438250484748 13.192763658240104
H  -4.060224157735719 -12.787349788556234 13.820670043391965
O  -2.821607640411288 5.556959540405981 12.142193760778744
H  -3.601144892210945 6.0936826162269995 12.28530862288335
H  -2.7368373675122553 5.038692648279639 12.942472012498534
O  6.738590778043536 10.21994213467002 4.229912856276366
H  6.523513990008447 9.937755460792655 3.340899635254375
H  6.5963908653804975 9.442257192257005 4.769558263928504
O  -13.059409690956443 10.422674924550046 11.42965238713407
H  -13.899740218789711 10.844448932645898 11.250255784870882
H  -13.157437473791793 10.056588716227182 12.308630937888028
O  11.527205337876643 7.802543089674073 -11.098084430368813
H  12.258511099685716 7.553951024326139 -11.663438937389191
H  11.27090088562008 8.672006061865163 -11.40561332097822
O  -2.8746204054579074 12.716201091310946 7.145568319741472
H  -2.0758987495495274 12.537549460310263 7.641914128569477
H  -2.7756703923879984 13.620962700112745 6.849178075352079
O  -8.0287531086657 14.030825668787564 9.362293954085292
H  -7.708739952810847 13.545467295980774 10.122721913094901
H  -7.321380955176871 13.965386839894192 8.720753427727841
O  0.8809550407807298 -13.53064327926878 6.706432726365373
H  0.4564522314023814 -13.847004916786627 7.503894029473097
H  1.7788588503742586 -13.856733042405644 6.766980772676768
O  -6.09913514838487 6.04641258018977 4.7853761115847595
H  -6.890417172558585 5.833732837367077 4.290530745808968
H  -6.13970510733189 5.481692858623348 5.557177618011338
O  4.37212297340998 3.738068013974665 5.324641192827981
H  4.1152527311388525 3.726321656352576 4.402626251226955
H  3.8985128057886067 4.482266180500395 5.696251672877658
O  -0.3880489421721991 -12.224218437018004 13.709224334307864
H  -0.7326840817340335 -13.113882725502307 13.632049693445285
H  -0.05977944236886468 -12.017273904930745 12.834212936121867
O  2.2338472953737916 0.05769687582200424 10.914604633251368
H  3.031147969488237 0.5739462168509202 10.796155894291353
H  1.5287922301805534 0.7049373542946409 10.929060389517534
O  -1.893421079055071 -14.095316712998402 5.029197325565232
H  -0.9791565046752583 -13.82686533861198 5.120224785386418
H  -1.8484021831614674 -14.989838615984999 4.691505580171425
O  -6.687289420104543 -14.356666914024174 13.129461689021868
H  -7.461723092131008 -13.921224227606398 13.48565546394534
H  -6.930662829717576 -15.28138306222439 13.085858024400174
O  -4.844689802440026 6.458854603193319 8.209876221462332
H  -4.460483452058193 6.828944541642242 7.415111621972331
H  -4.159578258350191 6.549256539893849 8.872206586773324
O  3.4822469840361943 -7.532205979540122 -13.301084773555162
H  4.399789510786522 -7.388070760938548 -13.069627215500436
H  3.3572113555164504 -7.033475868687326 -14.108467098694117
O  0.08698568489449755 1.6608610910188182 11.448801258794639
H  -0.05663452659178761 2.0511191702447698 12.310951893700663
H  -0.6276302272237283 1.0320660660953287 11.347941129921725
O  -7.682259024263439 10.809980754043938 11.33209722959792
H  -8.620159154335257 10.628988727298447 11.27031468284577
H  -7.350584336358121 10.662803937169631 10.446341768539387
O  -0.5066068105625612 5.360344440770126 -11.200254647596449
H  -0.4386214246265188 5.189539757323827 -12.13963508076998
H  -0.0777214886271583 4.6102917105243515 -10.788295750014926
O  -7.769153190763795 11.986287022345522 2.6762111267200277
H  -8.282468784541832 11.262639967754728 2.316942574820857
H  -8.415375642442644 12.66448240644899 2.8728819551219154
O  10.179485817240177 -12.546030694755178 10.421129743030493
H  9.8494743095719 -12.99083937822944 9.64044447307226
H  10.505211977089006 -13.251750547279098 10.979783311318664
O  0.8315675021732427 13.098182331961123 -11.710256471129235
H  0.6258902141182404 12.163565348751943 -11.730745460676449
H  0.3065024710045342 13.474996056530982 -12.416337189487237
O  -5.933499045733237 -14.461615159166945 -13.938007471138006
H  -6.74424467358818 -14.966614194604642 -13.875562680014596
H  -6.218682413016042 -13.547918823803492 -13.930177746622219
O  -6.92813261806055 13.589787235145073 -4.441004761313263
H  -6.08218813165029 13.340048290454309 -4.069198042393091
H  -7.235926010605569 14.301860212100333 -3.8802488841144083
O  -6.507483407245283 12.941426147036204 12.778036292496068
H  -6.853780458187394 12.32168339497331 12.135985574412471
H  -7.034910333891045 12.793568418512393 13.563014496003747
O  -1.8406823615774193 -0.3677148799451604 11.359299978226364
H  -1.8019678447636254 -1.2826938203436933 11.637771836108644
H  -1.7468190883397947 -0.40240756699445573 10.40734517141053
O  -9.424674749761943 -15.417718856112561 5.92172156854267
H  -10.04828669541094 -14.88525811166138 6.415508514177849
H  -9.708343222735987 -16.319673848066326 6.070856543473476
O  -0.30912368025485676 -7.776476064873735 -9.639632312573207
H  0.4583445816210798 -8.058203653990594 -10.137481570241517
H  -0.6516837362597899 -8.581297366895484 -9.250855859249103
O  -2.7141283403437697 -9.29947974041395 -7.135386046424138
H  -1.9301654623641518 -9.801059448471133 -7.359108761481286
H  -3.3673035181236277 -9.575640275752134 -7.778293035553464
O  -4.226063334804507 -9.39340121123143 14.977089656321862
H  -3.7206357926855183 -8.729836838065923 15.446618327598049
H  -4.621787246535619 -8.920246873922205 14.245133776786048
O  9.982834230570784 -0.47656537238535657 -8.557212061745517
H  9.055493407413302 -0.5396849225834093 -8.785875069041737
H  10.304076770808601 0.27078101440062075 -9.061700376096658
O  4.446732222454332 -8.096642836245238 -2.248297407564607
H  4.41764860215671 -7.628265025852566 -3.0825684789673655
H  3.744710049024688 -7.705054460807473 -1.728628991117651
O  15.040525798492162 -2.674294063351113 5.130717442911832
H  14.526827129429273 -1.958555902610949 5.504969247824861
H  14.393324695753165 -3.343698956007662 4.908772239948902
O  8.535907987097863 -7.5485299217068516 -0.47482032447243006
H  7.880484679567425 -6.958689473522359 -0.8472990278216729
H  8.068721038052807 -8.37338617912433 -0.34222937433420364
O  12.505066227459531 -11.66446094303868 -4.342424174709322
H  12.474257856418433 -11.12251849778488 -5.130828310367858
H  12.931087710096826 -12.474000475418281 -4.624174583162432
O  8.907171248483204 -7.720853854829889 -3.830607731253745
H  8.134631771888385 -7.339078991250703 -4.247336133764365
H  9.517537517902205 -7.874616838760492 -4.5517469776865305
O  9.118133422251448 -14.307011386324938 -4.0626720074556415
H  8.19680495880086 -14.056816675239723 -3.9934743210917083
H  9.192979237250071 -14.710349963161711 -4.9275118465182475
O  7.880347107083202 6.199895739263023 14.931532342638434
H  8.569575995928162 5.945252226528077 15.5450077464004
H  8.341926232566003 6.376358900666784 14.11175352222205
O  -14.943550991059666 -8.938800552838464 2.5513802027353982
H  -14.212176893904315 -8.567328254822339 3.0446672516573954
H  -15.36615406863948 -8.18313139164664 2.143210374770281
O  4.464961392025551 -3.5737493586048124 -13.312049139783056
H  3.53970184728186 -3.667923524952344 -13.538451109895512
H  4.68211108796159 -4.382539000964819 -12.84843596613134
O  3.7366554568599977 -10.729840216397275 -2.45001967627507
H  4.262389482829426 -11.084922411355212 -3.1667847839492547
H  3.9440264687378996 -9.795423130802854 -2.440333376706913
O  13.285494570881177 7.704518666428719 -0.14267004455120605
H  12.420526287022799 7.669850536568749 -0.5511548539486417
H  13.893019880694402 7.48097418776857 -0.8477747990481987
O  12.790144148169036 -12.845592779533368 -11.020090946929734
H  13.594446025569585 -13.258367466822792 -11.334650000781997
H  12.127127713764455 -13.088501411512002 -11.66633892954714
O  0.8954468992874871 -8.629166822990697 -14.367082613707218
H  0.18356916791699723 -8.704538831467795 -13.731644963945822
H  1.6696927839216102 -8.436304033582886 -13.838330209073142
O  4.559976918729924 1.5806682042630218 11.553153351269325
H  5.037435735202518 0.919187100361265 11.052446172799852
H  4.580746578844493 1.2603404119351291 12.454924152248385
O  10.911269628970441 -10.195992815258933 -0.1981371275351389
H  11.738430342412322 -9.939361780502576 -0.6057858941904025
H  10.677011124562732 -11.018619939879716 -0.6278340181082015
O  10.501139808746583 -8.666422444914662 -9.50281650757947
H  9.927726299711686 -9.415199372834289 -9.3392258272554
H  10.661282429829654 -8.688394773429923 -10.446269425593727
O  -14.432144216302422 7.246586381336831 -1.7780677674072876
H  -14.976633694419636 6.461605144971429 -1.718339067511479
H  -13.71389469285765 7.087622680522475 -1.1656300034572518
O  -0.19607915477897625 -4.3372616142996705 5.472322736577306
H  -0.9388771610992022 -4.190861831517034 4.886617967751534
H  -0.029597065121239642 -3.481402833722284 5.867318068637243
O  3.5123121692618167 8.177005878218424 -5.8991522571088435
H  4.19122451635339 8.819317634100237 -5.6924024468550325
H  3.994090036873949 7.40887361865747 -6.205900963574327
O  1.7999579034548465 -8.581832627057384 -11.155948364330449
H  2.4407912712052586 -8.250105252982769 -11.784853281535412
H  1.8459923634851847 -9.533688746826417 -11.245851682207542
O  -9.386152069479925 -11.771482273003045 2.9511272966834485
H  -8.768540647089154 -12.146001317516308 3.5792383275105437
H  -9.831327841556789 -12.529034580103534 2.571436784845393
O  10.367975027222563 -9.967330678420023 4.720789979555323
H  11.311076476458982 -10.108797935939416 4.803121761483453
H  10.22039816469605 -9.875148459778117 3.779537962808244
O  -4.496709636891374 -8.457785478715369 5.944694419599722
H  -3.7137881301686813 -9.008386834510537 5.954888149287481
H  -4.438571052556945 -7.943005619203323 6.749587861037595
O  -9.50317329522689 -6.748015745895456 -1.6661650621126762
H  -10.439790331000962 -6.595983158778466 -1.7921272452061052
H  -9.079135521801344 -6.011412545048129 -2.106437184813095
O  14.525221920744514 -14.91271465013108 -11.653351647935358
H  15.317531120293694 -14.709927161742339 -12.150699833495613
H  14.414807331954895 -15.858297533592085 -11.752918107676306
O  4.132066552113999 -4.3154947614472015 -1.193979026625478
H  3.8501334058887275 -4.290978211497648 -2.1083883937338026
H  3.8071164108363154 -3.496207461317045 -0.820605786627741
O  8.560021721473879 1.0418827167612947 2.7796697502490844
H  8.495995879855428 1.9966760519182687 2.7572592714003923
H  7.859739253215676 0.7682365118937282 3.372083516150191
O  -13.68761026549912 9.706927329000905 -3.9093133349855815
H  -13.035873981944077 9.292224562258967 -4.474550703505917
H  -14.436010798697732 9.1104619660567 -3.9282226854035915
O  -14.363922132888316 -12.15799881090025 -12.94059826741843
H  -14.355975735077367 -11.27322158599119 -13.305752985122318
H  -15.287295455467733 -12.335307638912852 -12.761223973064965
O  10.506488143907053 7.366482370083773 -8.657939095439142
H  11.01736395673618 6.850332172496607 -8.034379372385876
H  11.124752933626237 7.5787450930140885 -9.357170843191673
O  4.903487925160405 -3.469920243008092 -10.146873702841475
H  5.207605530387607 -3.504644760078368 -9.239934597431159
H  4.49578215994689 -2.6079319087263126 -10.230443861338037
O  3.0729841707529153 -8.639854418023294 12.254172318967797
H  2.125028086682293 -8.770529328616483 12.231038334609108
H  3.367939965416648 -8.86545128107281 11.371937097842581
O  10.575606695595203 -4.529364072149567 0.4575760161881913
H  10.11384152021015 -4.828876564559671 1.2407088532658197
H  9.949701349208404 -3.956757031724243 0.014185076455400462
O  -13.283876013371128 -1.08140643323072 -9.296404184149601
H  -13.494190434053795 -0.8265466931935175 -10.194761689922466
H  -13.24400614366585 -2.037452746039289 -9.321257595830502
O  11.781656249334764 -11.910332124957934 2.830448176228426
H  11.333982857965845 -11.336892733500218 2.2083648620315186
H  11.160015149859209 -12.619800148177537 2.993080640051138
O  6.664035308179674 3.8754926919076196 -13.792398281889763
H  7.597569562808603 3.6781048699307544 -13.71634768039974
H  6.4944458210549625 4.506659240151127 -13.093041402283575
O  4.912917260516067 -7.916654640569068 14.207411517007035
H  4.473762294985814 -7.827007108541317 13.361634899294764
H  4.356089391672865 -7.435082727790973 14.81918195444263
O  14.250854159253494 8.133907916593028 -9.180278218080744
H  14.68352390196072 8.373602213404093 -9.99977525202246
H  14.231388820106393 7.176956671248194 -9.190140541448699
O  6.290005558783765 -14.849267091670166 -6.433139311793869
H  6.33222981565643 -14.514415118836496 -5.537414399090026
H  5.720440115362001 -15.616441595286588 -6.375952447235436
O  9.208414538929029 -11.216488562545203 14.261664948736016
H  9.000231452422705 -10.977974564971724 13.358336256469698
H  8.424878186857658 -10.981291430555888 14.758640747849054
O  12.07598734745158 -14.99411692049506 8.36128288805533
H  11.377349990874947 -14.925601545519111 7.710557647877206
H  12.243426500974753 -15.933622973390092 8.435608908118269
O  12.058856548935955 4.711210079595402 -1.4512196148988372
H  11.362093160024205 4.331628975245119 -1.9866361031673505
H  12.445523747154857 3.9636071711354184 -0.9953575525366837
O  8.372438199217036 -10.514401001315555 -3.181561159216599
H  8.810437719777969 -9.666687989745506 -3.2575277362132398
H  9.060286963784558 -11.115078528053399 -2.894712005875685
O  10.036290177996875 -14.588111838361328 5.148582172798025
H  10.074051553069257 -14.219949802618972 4.265823630042395
H  9.592552146604586 -13.918490347659812 5.66909679267352
O  7.583379489520087 8.305028801273421 1.2480645907609538
H  8.064696774962272 8.32170186714327 2.0752813280350626
H  8.261565960548635 8.224489621572076 0.5773870215339565
O  11.402299806561508 -8.159504228750617 8.95054851600591
H  11.320771029491093 -8.841137311489737 9.617602674108772
H  11.908037596489415 -7.4669079822175535 9.375720925675804
O  -14.773954706731052 -3.80494705665643 -3.3928800762049938
H  -14.556596006459747 -3.9672978541158628 -2.474931676349091
H  -14.204824356691574 -3.0793894688028614 -3.649567984353019
O  10.721219703635782 3.4979433738147883 -6.814557382699155
H  9.943471643018578 3.3215475815054685 -6.28519519149251
H  11.34968653048948 2.8266314145723177 -6.548847857578513
O  1.7272254820303636 -6.058896466163849 -7.863392537839705
H  0.9655355451648124 -6.417337692158785 -8.31900221552704
H  2.4783470040992235 -6.4684029595557035 -8.292755719507884
O  3.3761218850357917 10.125963511545761 -8.950796986004015
H  3.9482733407931745 9.377205207377358 -9.11883140042832
H  2.564645571156748 9.916461253964318 -9.413232761976111
O  -10.156429115389905 10.211527501947904 -9.77336545858521
H  -10.712550452415034 10.952030913708413 -9.531258857077145
H  -10.749720140859726 9.460511300642034 -9.787935128808892
O  8.314638888124325 7.527570941200961 -4.526531343444463
H  7.823216184584507 8.245713949449184 -4.925287154646211
H  7.647658956155976 6.984578774962346 -4.106377647075684
O  10.746586568254843 10.844544796850997 1.0562271609223575
H  10.595922416591659 10.01508769862484 0.6028695907603385
H  9.873828214749546 11.224086044406558 1.1585655633334064
O  -14.933612896152157 -9.256275261592013 -7.766164601856102
H  -15.4592200140085 -9.814484778902662 -8.339201374899435
H  -14.494834526325395 -8.64769498279567 -8.360584854917597
O  -9.609820997992411 -13.97687829719229 -0.8641386003891582
H  -8.79743274829227 -14.47405227736316 -0.9594025285443096
H  -9.592375496657525 -13.34808428918064 -1.5856270623822624
O  5.959006091804877 -4.193413052257899 13.11353476884931
H  6.231861002927398 -4.949907266740366 13.63266726807107
H  6.63659048360465 -4.1053743070546185 12.443191258289445
O  -2.8936186315584225 -11.803448620778976 -14.722553551289954
H  -3.7131534748455497 -11.314213109581093 -14.794962846540265
H  -2.4660561852122433 -11.68224011481631 -15.570333418575162
O  9.512018019645172 -13.599366446482023 2.624611992107067
H  9.64067579048912 -13.062507175296428 1.8426521774356888
H  8.701268655148697 -14.079280916324013 2.4554983604205667
O  -6.37641130654555 -11.193938062738326 4.424124615496262
H  -5.74673000994607 -11.095763321058609 5.138333993498453
H  -6.767396346213187 -12.05609571430939 4.565711102884434
O  12.75828313672883 -8.423612728639267 13.462398011759616
H  12.629571111292243 -7.475427161559401 13.48707990201951
H  12.007901370212535 -8.754899862557348 12.969034160025842
O  6.3015845944330415 -13.916009170042674 -3.897231358807531
H  5.678327215784381 -13.948732143907792 -3.171482574613731
H  6.318716073684088 -12.995036764659773 -4.157516186946369
O  7.211981189979779 -9.365495576073531 1.4024967087127678
H  6.844451192828677 -8.586051668872031 1.8191749389311538
H  6.75845115887536 -9.424552092186094 0.5616312678671902
O  13.030256464915073 -14.071921124717692 -5.689643961294507
H  12.667156069036306 -14.799236831810521 -5.184271014307734
H  12.58270815559001 -14.119642954029676 -6.534424991292665
O  -10.816794721945262 3.609310233986849 0.5938412517394045
H  -11.534550115593696 3.917641059183577 0.040676585532819984
H  -11.182794066433829 3.5989542900883635 1.478244488434786
O  6.535951051994321 0.462887431139748 4.5652537700651745
H  5.918832031496334 0.6097905896796106 5.282062968784034
H  6.82130399466129 -0.4440147301189046 4.676312397974231
O  9.654151794376471 -2.833490040393526 3.0661778483175124
H  10.405278816069153 -3.396772993409121 2.879757991696853
H  10.037401168211705 -1.9765713527591275 3.253373283772538
O  -12.283406865901291 -11.540090664725156 6.808272070967705
H  -12.462082597719613 -12.0874212467686 6.043591701377553
H  -11.627903202207978 -10.911615302152482 6.50567412592983
O  14.90858932805465 6.820905021513632 8.770252913330289
H  15.496613960309526 6.435285692808447 8.120824998925748
H  14.205207182550197 7.214083263683586 8.253632861370384
O  7.944663929510614 14.156510775270503 -8.260963760886206
H  7.596610437851155 14.78827106533861 -7.631702643658963
H  8.580996560331807 13.64538565928082 -7.760900015375629
O  -2.848877910648567 -8.161868600194728 -2.814695607804292
H  -1.9270600849801443 -7.906892108430327 -2.8530457804872738
H  -2.8644471113041354 -8.918324495334321 -2.2283817588148107
O  7.277229217675928 -3.295567686367198 -3.482297486185106
H  6.8005938863227176 -2.466304248831386 -3.5193483011486277
H  7.575821749655187 -3.4410669815487918 -4.380019216881891
O  13.057040695970743 -6.692447759370044 3.7131349245513325
H  13.975254297319326 -6.591182825939409 3.963855977462953
H  12.628412302416416 -7.02591976231921 4.501364570216518
O  10.955914531439188 5.43092971709619 13.94050201723508
H  10.230363863412336 5.715494244893953 13.384776267910485
H  11.571802836373678 6.163507124644408 13.924888285707704
O  -12.312179004186465 -6.68233496552665 -6.320835483716998
H  -11.782317216350865 -6.053495845195264 -5.830897020897565
H  -13.214462664388236 -6.392913518219166 -6.185368612531851
O  -12.994740411254897 -7.271244433044377 3.411873080720545
H  -12.178502687705246 -6.863096422952136 3.7006689105546786
H  -13.608714851721137 -7.113719479930204 4.129126959356205
O  12.548672317629803 -9.662688512575222 -2.387484519508961
H  12.713428366118947 -10.333664982676876 -3.049963101708812
H  12.317016823489467 -8.881407494059902 -2.889647394440609
O  -8.919520334426107 -12.146764564439888 -11.701437474913137
H  -9.15126238110411 -11.366961112068916 -11.197022912981026
H  -9.654134610244464 -12.27092631477166 -12.30240134765074
O  5.257053439491385 -12.382399373906916 -7.7998396807509245
H  5.688186741864958 -13.037411979152552 -7.250918544911595
H  4.449363483216341 -12.170988469993084 -7.331679222087326
O  1.8962822357814038 14.011021594619796 -4.374954519301497
H  1.3674818264438617 13.484035231996652 -3.7758824439123746
H  1.3083530504961804 14.207860283364493 -5.104218294982477
O  -9.120685685289756 -5.397996804583197 -9.653338710291985
H  -9.117516250394516 -4.792787938194011 -8.911756595119485
H  -9.057890137512553 -4.833658996416393 -10.423930306580317
O  7.0304314366195495 12.219099716336391 6.377282514047357
H  7.089705978238442 11.58519732751582 5.662519517676671
H  7.687909732572875 12.881750310129977 6.165508266999535
O  11.102088891788 12.803331402512452 5.572295330774003
H  10.520852135819815 12.081468797137617 5.33290012762575
H  10.538758333526507 13.577187108150351 5.566140674177518
O  1.0075834390752885 0.3571659123928131 -14.336078677540783
H  0.17219205920227143 -0.10102897192984168 -14.244369674538016
H  1.5496084909924153 -0.23423556837590329 -14.858271153986166
O  7.176954966055149 -7.814911984554371 -6.371367689632886
H  8.1108345381089 -8.017413221900883 -6.3157435528648485
H  7.074206404347555 -7.387999696245002 -7.221908977269668
O  9.420178298063135 -4.695616594196394 -7.79140456729945
H  9.932369842804063 -4.3934338589984225 -7.041353057827246
H  10.07425315638405 -4.9321125530234005 -8.449042455493496
O  5.457853449573239 11.895823665748729 1.4920536829963047
H  5.239320661351043 12.704697028767828 1.9548702275227046
H  5.246572111543763 11.199151355196669 2.113535572296295
O  2.213505487778065 8.894610216358311 -3.387850688148614
H  2.362778921017673 8.45503572182112 -4.224943010833866
H  3.0373320662453676 9.34575223113428 -3.2034259014953745
O  12.179086127324554 -7.691501546903101 -4.303592004731211
H  11.843895315305817 -6.98957540719446 -3.745758100464628
H  12.678018788333132 -7.239667537682152 -4.984138901504372
O  9.467671980633282 -7.4160200442221935 -14.826673887251411
H  9.88537659625358 -6.683282215942379 -15.279277444368052
H  9.785942268263458 -7.354636393442177 -13.926025275279974
O  12.689325866270586 2.218247029947049 5.411977431277341
H  12.149467954921763 2.254164110775628 6.201594585141285
H  13.215396399971093 3.017266067048861 5.444384571513927
O  5.565354981861638 -9.902812103929175 -9.061276255616544
H  5.456557848758142 -10.729265071274094 -8.590775960810475
H  6.5124939652475575 -9.805690776701155 -9.15990203706091
O  -10.840440309265544 1.607177992797923 5.9192199894758355
H  -11.561806143722748 2.194746790371597 5.6942175632377054
H  -10.074375295083183 2.17831532254732 5.975597249340639
O  8.065464101137746 10.004340441147452 -7.243663766103065
H  7.624137926224261 10.74494400110396 -7.6595596967556006
H  7.787921461136311 9.242824725146999 -7.752874673373038
O  0.07813204669470053 -12.48191652706222 -3.002042364703063
H  0.9523533673947613 -12.824944394588439 -3.1872471577058747
H  -0.5012297448999543 -13.238056374746044 -3.0959800887667885
O  -13.674356553213343 -8.821436664659947 -0.8841956157104629
H  -14.457505710048132 -9.111660922171751 -0.4165642124471269
H  -13.432953086868146 -7.99797654300159 -0.4600851993183578
O  -13.749860082268778 2.6936291097713605 -6.84540866737371
H  -13.20083784554839 2.8644865579969165 -6.080154352266797
H  -14.512155074337976 2.2322894371373927 -6.495688919092944
O  -4.133202629814066 2.41276013109803 5.617628902834482
H  -3.6752736009119364 2.1473823736045032 4.82006542502609
H  -4.513742294323861 1.6025604661706359 5.956742331503514
O  10.331141284638052 -2.0396079920504 -3.397476876191666
H  9.891410893840318 -1.501002098582798 -2.7396222374239567
H  11.13733868058603 -2.3294027409982636 -2.9705148016858614
O  12.223006644411825 12.233544274591448 -0.7401225407773047
H  11.694630453035506 11.733085025152793 -0.11835812328840564
H  13.02519645827212 12.441023807920184 -0.2608777217068926
O  9.81495443039035 -13.49900194245214 -9.103771988207285
H  9.216255600198949 -14.205223992960168 -8.860786439416742
H  10.67684781408428 -13.808601304809747 -8.825348065402967
O  4.48969166363241 -0.5101027054559238 1.029681511456321
H  5.345481835292992 -0.9229679867885634 1.1454281847416896
H  4.574958450691208 0.3425921903007344 1.4561470324454948
O  12.791382192132588 -1.9782782491609108 -11.185873857877496
H  12.560686831412136 -2.2035598390656848 -10.28461933965892
H  13.207443693339716 -1.11879679377736 -11.119418565519396
O  -9.739448827362994 -1.1109207648653436 1.3988007118356438
H  -9.056870541765852 -0.8108735796312877 1.9990426809462223
H  -10.476462241608681 -0.5217162176457061 1.559676687590172
O  7.803379157069076 -1.1775906019108993 14.280465544126013
H  8.301738415562978 -0.38590778661547953 14.48321716620752
H  7.121878204323578 -0.8839120370890647 13.675865508740204
O  9.549928429291871 -11.852953195380916 -6.658955133477135
H  9.545086223204127 -12.264969183166679 -7.522929224330836
H  10.389566176173556 -11.395356092489502 -6.615999385850207
O  12.88786631090842 0.3790419906233116 -13.278737584699364
H  12.080319293594751 -0.13378964889470726 -13.245520493399594
H  13.51649387473678 -0.19154905914170406 -13.720874543955922
O  6.468254117044767 -9.655556333567487 -1.2345491209827513
H  5.892533649056897 -8.977105812891091 -1.587370158551534
H  6.9824142247988865 -9.948997692555167 -1.9867215767713764
O  -10.545640645444559 -4.781721239461697 -13.944003056800561
H  -11.069659049817549 -4.113803140454767 -13.501824387352666
H  -9.68337812941395 -4.721389615585994 -13.532791068373129
O  3.035542465085893 1.5148075568406587 -3.69490823937569
H  2.844875842933488 0.6218933632906681 -3.9822796592686878
H  3.2253494681956223 1.4308115951493952 -2.760483373050194
O  10.520154031397846 -3.7039962254242225 -5.5603110186383295
H  10.441620091310932 -3.2258459676223565 -4.734819285163191
H  11.403651720882555 -4.071839524881052 -5.541469826073819
O  12.265978304784484 -10.625919282163444 -6.888109037299404
H  12.357933380515767 -9.760432406146046 -6.48972657997196
H  12.711541522149856 -10.550280641776597 -7.7319005199708055
O  9.128518115941148 -6.634275012968192 9.398990441579926
H  8.36868975652182 -7.1824692543672946 9.203093048191576
H  9.881169668748683 -7.165787313391725 9.139679498169805
O  1.8889218988536745 2.768545051253348 -13.264397349902033
H  1.2302201880584651 2.1567150169263973 -13.593042928159683
H  2.390056505290053 3.0210202682633036 -14.039866383355328
O  7.840273204383505 -2.032481526105702 4.949541425406202
H  8.452408274424531 -2.405775397609245 4.315369372772913
H  7.1928445008021455 -2.7227325058933243 5.093143338689227
O  8.28634822734722 -15.126356778158314 -0.7636713838985587
H  8.760522693955856 -15.664951387500349 -1.397158773529539
H  8.92908491065737 -14.481517788264032 -0.46819873904467824
O  -6.50761578946374 3.278613816964762 -10.356623665076564
H  -6.732254874051585 2.487698194867767 -9.866499587708581
H  -7.168622241500396 3.328908815037694 -11.04711098165241
O  -14.071414329888297 -3.4658042283701045 -11.456424365637748
H  -14.313350161165205 -2.569833927131053 -11.690808929249155
H  -14.577539418759361 -4.015387601736493 -12.054778241660816
O  1.2188074210667375 -9.944535688323871 -3.2339083305699114
H  2.021367093937603 -10.15088121629323 -2.7547931613404115
H  0.6930256202259113 -10.742318910470798 -3.176225757960837
O  10.328231213861232 -13.110134623675266 0.03890995194042263
H  11.255395972378537 -13.300583090399435 0.18148183873201823
H  10.282434685462283 -12.805300860782843 -0.8672969260983647
O  11.101573165489238 -5.791706245791576 -2.6185587163533874
H  11.303199472797754 -6.22834821284491 -1.7909582840031595
H  10.1739758400913 -5.975400657171816 -2.767055908110048
O  8.116696552447985 -7.114059782355543 -11.480319096022644
H  8.55140092983736 -6.271113680432963 -11.609570108975731
H  8.374252907510485 -7.3842461074129755 -10.598902097924563
O  3.453270684273228 -13.90105322707222 -10.431854506363923
H  3.4078314580949476 -14.5200022533416 -9.703109536966629
H  4.349690764239033 -13.566330042529756 -10.40688891441804
O  12.996413802388307 -6.425908452754855 10.401459292310733
H  13.81907560711774 -6.160461545635246 10.81255215938252
H  12.485646977111827 -5.618455952444811 10.343411374541024
O  14.541059991849572 4.889163264690472 -2.5323656729746076
H  13.649131721849184 4.952134162417361 -2.1907072499393503
H  14.431094352773652 4.602292153502525 -3.4389220002956256
O  4.952086144220892 -7.256524173531876 -4.963025885014275
H  4.659673702530873 -6.420845544119017 -5.32685007759207
H  5.863643218571647 -7.334928512842388 -5.244358980464719
O  7.799027035413549 -4.30719978620064 11.099534788454157
H  8.083326696197918 -5.04501803813157 10.560063027550184
H  8.606411961829764 -3.837230092072569 11.308077153489196
O  7.370147074200176 2.153380918409504 -1.286377045296667
H  7.5549146798408 2.9006104147500444 -0.7173947410710881
H  6.60032238024428 2.419252804409507 -1.789282535053807
O  3.6091625048250764 3.29401009512982 9.696362802147217
H  3.859978344155936 2.798747864479921 10.476131093660662
H  4.254287507381681 3.9990615721060636 9.642067344627137
O  -13.97082570865058 -3.79261241038886 -8.523431202849007
H  -13.931758082525436 -3.724244919639638 -9.477386892393842
H  -14.040887094142976 -4.731873921766572 -8.352811548867708
O  3.5804788470264484 -9.364930886864974 -6.018601703155385
H  3.435095549204059 -9.17081066448619 -6.944567624124
H  4.133858939211398 -8.648650363628713 -5.707242527245761
O  2.6364204434439205 -13.525822288360525 -3.423719712168407
H  2.8151075764613926 -13.20412240911731 -2.540084070624759
H  2.4838336926206037 -14.46406516780451 -3.311250011967864
O  8.157341802572732 -9.513008114585746 -12.776886431552885
H  8.107574114472243 -8.808180844238231 -12.131151542443616
H  7.77179884956003 -9.139903699591136 -13.56959165905623
O  4.474946728735625 13.314424521059532 -14.129164104973926
H  5.413094253834155 13.141346309429416 -14.050710267414626
H  4.183535036231039 13.469378759315614 -13.23066521218916
O  8.095620158128163 -11.037539993594859 11.620016135274891
H  8.630928255340823 -11.747852880406404 11.266275135805842
H  7.750503281583483 -10.589605456828249 10.847694412731052
O  14.433026134336366 5.670950534943535 1.8120959652139796
H  14.020058758001973 6.399295184929452 1.3481952562926258
H  15.28061025444453 6.015379926929971 2.0935234054071477
O  -7.013269970209156 -14.695791816503704 -7.962588157293037
H  -6.289242898985562 -14.582189061862106 -7.346868200583348
H  -7.208584874041754 -13.810370007638365 -8.269365209146418
O  11.102241443636125 -9.41994255687436 -12.11497556891379
H  11.813050944813027 -9.138819518484365 -12.691127928225436
H  10.350804572421865 -9.530853526220302 -12.697447230263787
O  10.494617775685464 5.241320427145427 -13.499769259005319
H  10.60727699997501 5.533887765498374 -14.404171880921524
H  11.221059756259123 4.636001969734679 -13.351096918620675
O  13.38697928689134 -10.213568884951682 4.290630309636095
H  13.716378753725131 -9.567285722946558 3.666093748195831
H  12.911942099159253 -10.846856035802686 3.752560699217548
O  -1.23333739890578 -14.843805718705633 13.790332662909838
H  -2.1864604166449544 -14.78686826724644 13.857760331521895
H  -0.9433421246031394 -15.070311646618443 14.673978325106996
O  5.936071587840695 -11.316446222356378 2.709110191494987
H  5.5312622615592675 -11.668105094808038 1.9162058482107795
H  6.535303181948716 -10.640260364311324 2.392999399493208
O  4.586566969317402 -2.1597154756591714 14.272193675722264
H  4.499722204159557 -2.451601561433446 15.179658468710624
H  5.053650292666671 -2.8715714041909197 13.834785220293517
O  14.398398316439735 -5.858288667419397 -13.779923675098274
H  14.860364749239825 -5.790592833989358 -14.615528928743515
H  14.224233783755425 -6.793876903127377 -13.677097513169311
O  8.800575658782638 1.1690442294322982 14.739594199426758
H  8.491784454538339 1.7617984365205208 15.424811167239088
H  9.664528826490308 1.5059277187510158 14.502262597128029
O  -12.345150748716659 0.7757213492814586 12.617672529305107
H  -12.52619980774389 0.6626184954301135 11.684580447303876
H  -11.476294312811689 0.39366625564317775 12.741584796772516
O  6.443820706152743 -2.378645239720554 9.237984295836277
H  6.674803098019827 -3.1556409337372413 9.747058629253551
H  6.230118749240496 -2.7163845798004265 8.368216819672881
O  9.393800374760854 0.791246113437597 11.496842377754001
H  9.446186510729902 1.6344869366611026 11.046917431096304
H  9.369347089139616 1.0165535101109333 12.42682649839476
O  14.233745893299155 -5.2524123203494035 7.50184549477966
H  13.357075884549614 -5.116515973604426 7.142382381904628
H  14.082025469049126 -5.631206607500952 8.367713643924837
O  12.549863008101225 -3.9762208036535167 3.816626089832604
H  12.743675475774587 -4.903792083605793 3.9518300054542093
H  12.217367995056144 -3.6748041395784563 4.662100460665552
O  13.1063164448632 -2.5595684789882363 8.97340696899307
H  13.57851897226865 -3.207369712740822 9.496484578414359
H  12.502319103214901 -2.1467971571529536 9.590690451656826
O  -14.023462907696908 -1.6652509671612445 11.779286147590373
H  -14.22282533925604 -1.7671019678503608 12.709937986549933
H  -13.122698634910117 -1.9768843588620466 11.691307713498292
O  9.094919764403226 -13.859596639269533 13.135754664481043
H  9.941451988916292 -14.202015250064303 12.84876243695616
H  9.309605618443907 -13.058434444856655 13.613542246085796
O  6.81478315232561 -2.2818476376179415 -12.597249788821445
H  6.7052114961247895 -1.6062527816340488 -13.266426517005316
H  5.9659723960030355 -2.7227230358363803 -12.560087522822336
O  -14.185628263303398 -11.133551334499662 11.597354641902598
H  -14.434819611993916 -11.744516719075918 10.90391623699215
H  -14.727779517260322 -10.360133925703362 11.442018295798064
O  13.09005627414132 10.145400664813174 -14.785828925068483
H  12.427575793643111 10.654975726341666 -15.252395876796154
H  13.724958494946598 10.795486857052266 -14.484965229196149
O  -12.03005284426766 -5.3134320320749895 7.902263633121391
H  -12.42518059856456 -4.674172713460392 7.3094285530476455
H  -11.259322424243594 -4.868963944033017 8.255328201124462
O  6.2659316248125325 -10.591047204903962 9.452485817178744
H  5.310807907240946 -10.541371566081509 9.491252631042803
H  6.448847036254701 -11.49297907970415 9.189250758165473
O  11.608569245747617 -10.046242078876855 10.915470671432185
H  10.981973962359543 -10.754677997483018 11.062877424607947
H  12.316351254975348 -10.45214605103244 10.414952496318406
O  13.840260087210401 12.515197948816281 -12.021545150427455
H  13.795889063325957 12.069346103154732 -11.175685117811543
H  14.645342567604768 13.031197956239033 -11.978906635923208
O  -12.33163349499051 -8.523645231986666 8.399147814611133
H  -11.859384309761856 -7.906011274356427 7.840810235497713
H  -12.528796660787386 -9.263779498812484 7.825074819304335
O  7.461107726948645 8.847069348019081 -14.15186232279499
H  6.97103157571492 8.722600341902375 -13.339111018074037
H  7.4291161452993055 7.993803548796103 -14.584465912004905
O  11.961873849894937 -7.840296446495762 5.9075872029870435
H  12.247666770869913 -7.911641684537801 6.818336407843503
H  11.341681393857792 -8.560429579984568 5.793563353097806
O  -11.723600361932826 3.054433910335696 9.805730717172633
H  -12.321499157582638 2.3262530412901143 9.636906835763982
H  -10.980521797066185 2.6549333846772254 10.257909251881758
O  -9.787054801798202 -0.3760375681859008 13.70537217834679
H  -9.73695612150472 -0.5562071367080924 12.766617205188869
H  -8.93492254020303 0.0017469773956154538 13.92304463109591
O  4.592114785903653 3.6348728864677864 -10.114301673379122
H  4.495351072562707 2.9421800635294937 -10.767788695168846
H  4.626119010674121 4.443659840091635 -10.625123782496345
O  11.982951105012923 -5.045942865503488 -9.416526828224773
H  12.018963569812895 -4.118578942587419 -9.182152965197968
H  12.759122687276918 -5.186766668969854 -9.958705933392453
O  7.237776059692994 -8.256521248126727 8.242958286066244
H  7.437202150837072 -8.509880013699945 7.341697823771596
H  6.886273484875726 -9.051620069585518 8.64357737551285
O  8.075190910704276 11.20540349116788 0.9561669555086487
H  7.175089222386512 11.526263695065413 1.0118224229821933
H  8.016159167054498 10.417620469309625 0.4156625480049716
O  11.137205738227166 -0.6757142599151734 7.8393180625892525
H  11.957677201892196 -1.1510776853614777 7.708596825306708
H  10.84990780208241 -0.9295345718665757 8.716396734057902
O  -13.17735008775744 -10.77321231364505 -10.800319211442083
H  -13.364726929509658 -11.189079825001123 -11.641851137747219
H  -13.646587746559105 -11.306957891958403 -10.159098868649817
O  11.747630643226088 13.275372987227275 -13.735729980622345
H  12.250256397715194 13.155183804103473 -12.930029191246014
H  10.907260895634517 13.6286943358174 -13.4438831667273
O  9.30832804022371 7.96346032205249 3.3693041287861507
H  9.021949909994502 7.089582382825074 3.6349293622927252
H  10.191898852919909 7.8322232042045155 3.025340048295625
O  12.512415793550689 12.420653046933303 13.376598773179435
H  11.618903279979591 12.720763003813936 13.543335849711092
H  12.950657780210664 13.176843510319491 12.98627609252988
O  -8.7911569888764 5.868365633625463 10.419751046960286
H  -8.322968448914486 6.642349164560687 10.106732140651529
H  -8.128707720193972 5.177633140097449 10.436527209335775
O  9.217576980183825 2.8351329046445315 -13.205040555535309
H  9.690981692161984 3.6637399771418155 -13.130675584603331
H  9.488100087650464 2.33428076917657 -12.43549767983498
O  10.319738750314247 -0.48161237941390067 4.258866730296039
H  9.995449085369213 -0.43388858399345664 5.158194536703615
H  9.77770951366104 0.14147066751272575 3.774920789034901
O  12.917979656180883 -12.696418975522903 -14.191878317151067
H  12.125041520627487 -13.15197807718496 -13.909129543687202
H  12.691787330692204 -11.76765372680548 -14.142239668073477
O  2.6463694572155623 -9.730451719830329 6.8576726334802975
H  3.043607293256876 -10.552839188573797 7.144225950837263
H  3.3042503311682907 -9.331849045438233 6.287988058937492
O  3.6408406090522227 -11.874238977663463 12.690642922943113
H  4.593518232933113 -11.958530331128665 12.651500062738194
H  3.4782599552000484 -11.35096289896973 13.475487829454751
O  14.269163187519085 -3.906428600945833 11.292237228515813
H  14.22568880388707 -4.18439455779155 12.207156217071642
H  14.663326527844804 -3.0347565081530132 11.324716061727802
O  5.140252228085933 -9.066771248921926 5.725894115003079
H  5.121756632120974 -9.98427919389444 5.453738029898284
H  6.018158680709354 -8.76491739400709 5.492663839239898
O  14.45779850433572 -12.456350289017848 1.0734248378908675
H  14.104151115999466 -13.031696098973402 1.751762935381263
H  14.350517447609107 -11.573576959687525 1.427591288459011
O  11.157208250268733 -3.2254719381707324 12.585407658451564
H  10.43691351834758 -3.0175280670553484 13.180526719186087
H  11.942633273870367 -3.166116945905622 13.129297691464616
O  2.898556851540742 -7.978301697496171 9.169106161299975
H  3.1048550224164178 -8.909936726331441 9.093415418419431
H  2.0746983409066018 -7.953704151165164 9.655813430598007
O  6.573632678717074 0.0709871750070383 10.446075027363834
H  7.518601884965258 0.08556489041527941 10.597905657585505
H  6.420228373622221 -0.7427849402572233 9.965998039356649
O  14.846160415217177 -13.061771153239885 13.679114740659951
H  14.418023826289552 -12.823824328049124 14.501496781089102
H  14.867009728904211 -12.248194124575027 13.17524017753437
O  9.054588280517674 -10.904007341591221 -9.91234036063685
H  8.57519748291434 -11.152555071834716 -10.702682273849987
H  9.29560311514483 -11.736524526372412 -9.506066023087701
O  13.800824398229425 -10.684985446785507 9.05438450764125
H  14.21432057851834 -9.825224377994013 9.13225404144198
H  14.519407937999665 -11.277845994548397 8.83441651429923
O  -12.461214096087222 -11.822271227238922 13.954572727771035
H  -12.436490243320366 -10.982140213649057 14.412612531637672
H  -13.092644760859507 -11.691444017485594 13.24717509730374
O  -5.050591209991406 -3.839292361599307 2.167173341466078
H  -4.966069151853531 -4.455180166601 2.895026406415103
H  -4.9535697223664945 -4.379652529017714 1.383062653346119
O  -12.696995475980543 0.39321919194438104 9.738051722508501
H  -13.33825633350105 -0.30914932389167066 9.846194366232808
H  -11.935969683103975 -0.03491415851640787 9.34591217130617
O  5.187831516544951 0.5327913714734612 14.03563776636829
H  4.819736260413507 -0.3239312512515622 14.251887809008839
H  5.72766853881803 0.7600759849803651 14.792704173405156
O  5.05906385871215 -6.450183493835608 8.442724479892865
H  5.762268231639532 -7.090447982109753 8.551337765305895
H  4.2563987499686675 -6.945072775766422 8.60717864570563
O  8.656679656244876 -2.8833992255089207 -0.8312624626638141
H  8.153879391673435 -3.283032885310366 -1.540992469580491
H  8.981894918017426 -2.0622763143336664 -1.2003478851213303
O  6.9671395443797435 2.8115444732113097 12.477378591601623
H  6.633346716644221 3.6823906457645004 12.692880662865772
H  6.19269584902746 2.3174969140105772 12.20833245653506
O  5.668281145534031 5.020341160428771 13.592058389574646
H  6.341322163821401 5.336558357161824 14.19476422413272
H  5.613064325082955 5.6971788809294015 12.917466917894087
O  8.12038486305521 -8.58589223855027 5.698857430610933
H  8.39140054839865 -7.678387696069415 5.5602289541286645
H  8.866829433846078 -9.107097962993002 5.40322768521592
O  -14.827549872723688 -8.46714398171518 10.002398537737347
H  -13.920849260099054 -8.252060118928028 9.783618324162122
H  -15.107432191284309 -7.76182487146602 10.585856069432518
O  6.285402578740827 -11.368108697529573 -4.761668737217743
H  7.033981563103577 -11.042225660373257 -4.2620072507275735
H  6.104262238016506 -10.678206872186578 -5.399991147264606
O  -9.725369459903478 -4.064899010019289 -7.4431597396652105
H  -10.225815674371756 -4.614511263246574 -6.840074498306948
H  -9.496071761981446 -3.291053658829129 -6.928555242029998
O  -8.935996542324895 -9.564183950699665 -1.9154385630179858
H  -8.575484460523215 -9.777134236214804 -2.776202796470675
H  -8.907509168622326 -8.608344969105433 -1.8731046331060819
O  10.915212915739529 -1.4286563979269318 10.485737390091526
H  10.917924283587823 -2.080397406347252 11.186778157269163
H  10.417518509844212 -0.6934415602171777 10.843496067930772
O  11.954224491462913 10.502375000842179 7.141458047989039
H  12.781126842519976 10.739951309258156 7.561007628269004
H  11.722709029091693 11.268499211760732 6.616399827460286
O  -14.587660578102641 -5.840214813097269 -1.0277405717636061
H  -15.250191710480953 -5.3258469398753565 -0.5665355843187264
H  -14.968875072639637 -6.004468935163061 -1.8902531475308546
O  7.0178799421666 -1.6471627903265578 1.1271964601615085
H  7.457661750035847 -2.184763352715337 0.46855433608813846
H  7.730537217971366 -1.2553203569905964 1.63198450033009
O  6.390951451783426 7.952291284264687 12.174799849413123
H  7.069173072191858 8.482448528754439 11.75625405676559
H  6.034231718575372 8.516773682240153 12.8606150615025
O  -11.836454486361273 0.30801931515261705 2.454681236254332
H  -11.58500841817687 1.1429510143750068 2.849517636862956
H  -12.638998781615893 0.5033396388674023 1.9709411447634884
O  9.093722908212191 -11.93789472081608 6.17525156960589
H  9.466792280194664 -11.379865643200036 5.492862646013964
H  9.765050302596967 -11.964635376329966 6.8570406262125445
O  -15.072157680401496 -6.370475531993984 12.44297243480271
H  -14.532980136178551 -6.117326147950182 11.693682893983333
H  -14.48948385844902 -6.895855276176993 12.991332893288593
O  -1.1777500019377558 -9.216388293871082 0.644811988289175
H  -0.9397369056934529 -8.592398891637497 -0.04091306064350764
H  -1.2866787191092734 -8.680007622888095 1.4300903855398333
O  13.294792798032544 -3.1161192871812577 14.34538817869913
H  13.947549904007822 -2.5579424741966 14.767973858606089
H  13.041043674785788 -3.743448887238384 15.022367355750408
O  -11.11639613584946 -1.3432038632404617 5.125067870677801
H  -10.8983740620143 -0.45236493945134487 5.399119395030832
H  -10.974989263318708 -1.3444407341162414 4.178371289206808
O  4.413315701397751 -6.435600267752362 4.923716747568168
H  3.953342026776557 -5.716881506729965 5.357421038562922
H  4.271246638563063 -7.190654004128509 5.494630127501628
O  2.2251000826861382 -13.377608692553258 -0.6597770524052047
H  2.7596777039760645 -13.542896127782079 0.11684298428509327
H  1.7336066199569378 -12.58391090460217 -0.448330018107328
O  -9.57096560185274 -1.2565782225459023 11.147952930957493
H  -10.19754980806371 -1.9537468552190913 11.341808498225806
H  -8.71336748385586 -1.6653187410408434 11.264950825665274
O  -8.815747952474739 -11.988271232494993 8.89877842189297
H  -8.01213112706822 -12.508299309980934 8.900405495086675
H  -8.986291236214209 -11.807188417453801 9.823092142058083
O  -14.353921206904413 -1.4944178093403424 8.45898294053498
H  -14.709086654114795 -1.629643420347101 9.337506355164924
H  -13.581041836019628 -2.057986663445649 8.423213182910356
O  -12.936620419419798 -3.086980519656131 6.619420580214637
H  -12.121914661200332 -2.627215368570522 6.416683350805158
H  -13.471394095081056 -2.9862349969768713 5.831956735776566
O  12.457939186941472 -7.335559111598242 -7.609590598731466
H  12.497009917004334 -6.44329640813875 -7.953934317833282
H  12.544313359645294 -7.894749362538858 -8.381651228708192
O  -10.29384016374744 -7.438372553374151 -14.587337207148758
H  -10.615872952447747 -6.541619309718483 -14.495902236747398
H  -9.363929548684181 -7.339756874333957 -14.791721762968095
O  -11.36152729676619 -10.307753259030768 -0.2709476098489732
H  -10.676436377682315 -10.072745778227874 -0.8967700825781335
H  -12.099032116453824 -9.74165472124636 -0.49865561865240826
O  -0.6113543337095746 -7.083125820014549 5.46556469341097
H  -0.39370602443982794 -6.163862010564781 5.619886153115311
H  -0.7944998091680853 -7.1321481509688684 4.527328903908013
O  -12.567218319092234 13.862923139709395 6.318162258347928
H  -13.163274744574325 13.13159342290335 6.479734018799004
H  -12.69663147865792 14.078456855778992 5.394566403990724
O  4.711133219497707 1.4412418457533172 6.721422175488934
H  5.229118622270418 1.6487474288940918 7.499152466976385
H  4.713551094423982 2.249583319603964 6.208772132719833
O  12.185730462583395 -3.327637336983903 6.45660755745242
H  11.454557275506247 -3.6415331929019565 6.988666776857815
H  12.692180442475895 -2.771724600793999 7.048807944505735
O  -13.259201018969272 -11.108168189360654 2.42110913819442
H  -13.169002566802334 -11.63292293140808 1.6256667765221335
H  -14.01856725618914 -10.549521674532292 2.255251247040527
O  -11.196106321815286 -12.48738959471716 -9.44903986583273
H  -10.285626617448196 -12.2400154888577 -9.287594486514516
H  -11.578558393913408 -11.724925563842 -9.883333389830973
O  7.278397932872789 -5.242642581586157 6.74665151437639
H  6.745539919154472 -4.4896641597949065 6.491078267829957
H  6.6597017245390315 -5.845699672092612 7.158681850881699
O  13.629865102454284 4.873095851119949 5.342439899961634
H  14.248901176316766 4.902421181398364 6.071937134417215
H  13.494000151876591 5.790617630101672 5.10595237150381
O  3.593844447747424 10.083877037060802 -14.28590345178307
H  3.5124719027527695 10.84365175861895 -13.709403033552794
H  4.225578046623058 10.354680162745797 -14.952094248768613
O  9.31207631112178 -0.2747969470500761 -1.6055944669253668
H  8.816192829593824 0.543598103358865 -1.629279167286919
H  9.795109838556753 -0.2389134592756395 -0.7799899384153636
O  7.63108757924657 -0.059563005792425405 -10.743418272574875
H  6.964558553923236 0.5937477399155217 -10.955917634365468
H  7.275370098276044 -0.8828773282803253 -11.077858776903566
O  4.712240289722379 -15.553547069399103 2.238936322181664
H  4.852099471479875 -15.519766542246531 1.2926117816139082
H  3.9169103512344208 -15.040627316944917 2.3824475318638085
O  9.619254550954455 10.562438301747022 4.782001250407085
H  10.46479459175577 10.260208533499068 4.4504125633204215
H  8.97396355057509 10.135238572515252 4.218679169363691
O  6.997494730994541 14.079608018475723 -10.756230065703678
H  6.42607158339192 14.811971579090047 -10.98720853285068
H  7.408431841949733 14.345965424270759 -9.933784764157553
O  4.818034608856905 8.370419416315835 -1.4607380768054836
H  5.289009115703029 8.874489098447352 -2.124310695494831
H  5.50658549200576 7.958757464605213 -0.938565720541684
O  1.2470450450624706 -12.99820327551182 -8.019982536768172
H  1.7790389930403672 -13.793946160321354 -8.022730519163545
H  1.4651722860835537 -12.566546091998436 -7.193953219211475
O  2.9426716109705877 -11.98967328884487 -6.1498298594356235
H  3.157030273317709 -11.060335455588131 -6.068507006732469
H  2.7582664938096757 -12.272692886529292 -5.254214701620185
O  5.407990136230469 8.501765274123724 -12.253793353081113
H  4.6092414088338 8.976231530167965 -12.484258303073336
H  5.299791623701098 8.285301829672694 -11.32768941187355
O  6.705770542502206 -15.600811553110548 4.314032287255313
H  7.346327735612103 -16.246031950787764 4.01468471069292
H  5.937092879731406 -15.752840548139194 3.7642562544518112
O  12.201907475793561 5.8305896459864135 -6.87810944336421
H  11.655142168058832 6.1864846522228 -6.1776679443001505
H  11.966051300993417 4.903816508653062 -6.919283070157283
O  6.1669606938653025 -13.501127864086882 -10.285123667315329
H  5.98586888081171 -12.999456139765451 -9.490288409492248
H  6.730167915722669 -12.929318709300027 -10.806720989554435
O  7.080207527823893 -5.510519360810435 1.2430977762683488
H  7.049540328214205 -5.729173237139848 0.3117107159912706
H  7.974974097541359 -5.72146197859738 1.5097958237576123
O  12.899215907858629 1.8861404695626762 -5.606309236157692
H  12.655730917880689 1.5079174134775428 -4.761386618210687
H  13.564738800678299 2.540385975011525 -5.393532478615247
O  -13.887819885856743 9.997426340385605 -0.9882774247402311
H  -14.674932968915366 9.633318871183183 -0.583171764243721
H  -13.90380262066665 9.664534987881071 -1.8855843680060542
O  -13.018530176071362 14.077502876492133 3.6225356495393433
H  -12.784630220757267 13.172311448675359 3.8278430793329257
H  -13.417396810162437 14.03113604448115 2.7536355540649113
O  -13.794284155216674 2.8364014418317964 5.021068064978814
H  -14.624285387152723 3.239966737083258 5.2749673723244666
H  -13.760650899307127 2.021320510659668 5.521811243218774
O  -12.848350167792075 12.683397705039287 -11.485763031953805
H  -13.425328841480589 12.757662773263721 -12.245902598459601
H  -12.73957572816938 13.583291590371104 -11.178206586330347
O  2.525604195316845 3.996405257239309 -8.055831131093095
H  1.5837470492901884 3.8662327678887207 -8.166248929985064
H  2.86465264096662 4.065001670120166 -8.948340253993084
O  10.557886567255228 9.75607351341573 13.76160066624151
H  11.058955365044545 8.941189421637363 13.728047310733125
H  9.855993698953036 9.632694702428395 13.122573341909263
O  11.730260886303665 1.9301416524810568 -1.47238431855547
H  11.18817140562693 1.9859739953103213 -0.6854576413795209
H  12.290875595191652 1.168598379759854 -1.3240777348551072
O  4.950536665722186 7.899811926224281 -9.58198043986162
H  4.614168602164769 7.239789211339399 -8.97579697549462
H  5.734804068829974 8.24211374964449 -9.153044602092006
O  8.104590891629863 6.042142783099234 -1.537954901085482
H  7.649232015430742 6.031849276679729 -2.37984217881904
H  8.825491793762755 5.422023530026674 -1.6474348174631956
O  6.5846136094622185 11.43947906435618 -11.106570258753063
H  6.85314717398192 11.22754331148281 -12.000552815740447
H  6.746135108109586 12.379324172237688 -11.023903279352211
O  7.65478154657199 7.5811541784828655 -8.706594480705434
H  7.43763801650977 6.711590433873944 -8.37052985562391
H  8.605437061190786 7.565192217021979 -8.817189051677753
O  -12.229302337609608 7.589543365265699 6.740590706641999
H  -12.210484333668663 8.012822290522577 5.8822710197080355
H  -12.280460074703768 8.313844657181438 7.364291256010005
O  10.361276110370227 -12.38659231696251 -2.555864415446736
H  9.990578734485863 -13.17426268674313 -2.9538477001453103
H  11.055081533877138 -12.117323281327884 -3.1578279289408275
O  -11.853078495450546 11.119696596342516 0.5231249758055277
H  -12.70324604934917 10.782026075926748 0.24129949655014163
H  -11.865585526615236 12.042738501032142 0.2700062938088208
O  9.14529143141651 6.203504339068026 -11.296800265828503
H  9.862913774584506 6.771323379826208 -11.016030679947328
H  9.496467029642394 5.727114449779974 -12.04910354470755
O  10.358950946369621 0.8960190585501426 -11.300725165573024
H  10.431953059942101 0.27340853013276567 -12.02409137444315
H  9.450148231444324 0.8204794616702072 -11.009858795112322
O  -13.748849806421134 8.754496437435925 13.95445480041694
H  -14.114781964226788 7.917800064840955 14.241273012508628
H  -12.858906395241105 8.543136538760363 13.672391741959323
O  10.723680553489396 5.220528200298232 8.29177951674339
H  10.898395684038235 6.0717096495440455 7.890286534943639
H  10.112353201695283 4.7931679268024405 7.691884595608566
O  13.094789285704767 -0.5329892553802402 -0.9227322115929217
H  13.049882622831884 -1.4858231298345093 -0.8432158601962226
H  13.994723977707295 -0.31413944403100613 -0.6809592581426377
O  6.516149274793377 2.046735381296479 -6.02026633281744
H  5.611375717982556 2.3024006399431327 -5.840678089231195
H  6.450552599679254 1.425596734248756 -6.74560467330073
O  6.343041713177193 5.681929398584378 -4.07321349590113
H  5.420872255371246 5.458410423708997 -3.947219012776271
H  6.590111110322901 5.234210746673713 -4.882371436319877
O  4.970926827020475 10.30546214164536 13.363478537432893
H  4.044446234884572 10.515931712510424 13.47996082343699
H  5.297950799899976 10.981832929307567 12.770343030506634
O  7.837306223716848 3.692322386577182 2.3455365088045617
H  7.179909487264974 4.325379487671407 2.0569189617393198
H  8.278391877029105 4.12169111809802 3.078556146775907
O  4.671121219654454 5.956929891093025 -7.416239308090464
H  4.040831120184305 5.25030257551937 -7.556396641870885
H  5.478715055062601 5.511024606850904 -7.1609110383805294
O  8.785101574668344 2.118349937134594 -4.501605107288088
H  9.227889178959972 1.2739900240442794 -4.586618785417861
H  7.895291534349527 1.955286843677856 -4.814463494609732
O  12.520010924994796 10.154195331445553 -8.49421737759057
H  13.23081394870262 9.550819168720606 -8.710846365864272
H  11.93925851315484 10.123724134163217 -9.254500215155389
O  12.255879941709193 9.599567093745216 3.886198031719636
H  11.7952148204013 9.12475980561152 3.1944050453697703
H  12.615842137181101 10.37122715700582 3.4489340206038777
O  14.025493020834718 -0.380059897437926 2.3897614436976826
H  13.964951608493854 -0.46467371301640914 3.3412902611395823
H  13.438091506318798 -1.0556062453521604 2.050897985382241
O  2.0873877612931273 7.091165087795927 2.7038127004439314
H  1.8990078662640077 6.278028657076869 2.2352467915222034
H  1.6890219474584212 7.775708577609738 2.166284338644577
O  10.523645249753894 -13.448950557179455 -12.727992857538942
H  9.699631988579466 -12.96206674055207 -12.714645748024635
H  10.353777590862514 -14.222965088071508 -12.191077282007672
O  12.889850851780079 0.8987253838369558 -10.020712288505067
H  11.972549608710342 0.8464231507996535 -10.289142459498164
H  13.142756058246805 1.8032426470892604 -10.205426467273075
O  3.2178691727929687 -4.186924759610272 3.1092489719029874
H  3.0360703324373994 -4.137846638690383 4.047743708441078
H  4.156650118131524 -4.014450218221874 3.037313444800815
O  -3.1733757488715564 -11.455374727412366 0.4809781040366667
H  -4.012136827284464 -11.310643619438297 0.9188874674231671
H  -2.6008682737695485 -10.77054626205147 0.8266325771758394
O  9.67220308975414 14.031689789303709 -11.763818788151834
H  8.804813430913953 14.278897170991007 -11.443263736727323
H  10.227477571871141 14.039806881713815 -10.984180273750539
O  9.226293633312205 12.826675840109873 -6.304908695315165
H  10.16079447961352 12.624422068487021 -6.259815115463764
H  8.791824534025995 12.00946258752801 -6.060714198269559
O  12.60353666314229 12.767122291898492 -7.390385955845336
H  12.805342504433955 11.860080179662786 -7.62012680956733
H  12.900077140472877 12.856965639478373 -6.484723894689221
O  11.72429094089846 7.594388249794305 2.071646093857404
H  12.450659481789732 7.76059756694155 1.4708174523011888
H  11.484090825305287 6.6818234646918935 1.911142921685103
O  13.675932523623048 7.854723575098751 -12.886659616399172
H  14.611524553791055 7.754769724015622 -13.06246812460374
H  13.353005358879395 8.39658835760215 -13.606612708322894
O  3.159064721185622 13.656086215342505 -1.1074894248072706
H  3.8050276468286577 14.27729277570785 -1.4437425420732746
H  3.5381677317172944 12.79547280416632 -1.2859755999774154
O  -14.09422011025156 0.2636311531577917 5.9981055013404605
H  -13.795176519685292 0.13680365189412752 6.898505171865614
H  -14.94877829644989 -0.166421851505198 5.966221800189033
O  14.717586708362951 11.325922187788496 3.0980372562215437
H  14.546744523542898 11.482005199861378 2.1692300146231998
H  14.658370919107494 12.191793852900135 3.5017594387642
O  -7.847013762605133 8.026974861313311 2.4787091462243898
H  -7.626086307932919 8.890937210996967 2.1308701476654166
H  -7.501703045955885 7.41217424995495 1.8313973449586292
O  -10.17233093276504 4.996476056443211 5.314343472671775
H  -9.983910490919618 5.924975343633761 5.1778932561136015
H  -10.132961874815932 4.8805950280266694 6.263687201437431
O  10.33855774578486 10.353928890458949 -3.2287192725629845
H  10.194920187953862 10.214768126787558 -4.164793193069318
H  10.26891122047978 11.301615241175295 -3.113516004396579
O  0.5327854651462232 7.875638899562462 -11.945905725274901
H  1.037821415410106 7.541321326229649 -12.68712249513327
H  0.25233221156407803 7.091778965367346 -11.473527246789512
O  -1.439456608806248 12.348209120235396 0.40820250798823354
H  -0.48796395639575607 12.348297001984456 0.5125748007818719
H  -1.6252896121230023 11.557313436318502 -0.09794170353379772
O  10.166891036198162 9.516479444654088 -13.212607755320324
H  9.286188492462443 9.27307404546165 -13.49782467613457
H  10.64961917700678 9.666141836757737 -14.025507848369049
O  6.219609607508434 11.55539450990631 -8.385841062845001
H  6.009606982276527 11.30421807113603 -9.285308207781236
H  6.453668476429949 12.48172700303725 -8.44377558507791
O  2.120020315656116 11.278980755433185 13.187285408903794
H  1.4847765055953448 11.336861564708949 13.900970889009992
H  1.7117162255976899 10.693572796317328 12.549463221877721
O  1.0893351039144166 -11.071120737733809 0.7817800830385446
H  1.2465229577759118 -11.12020488990418 1.7247088053826514
H  0.2928357375313313 -10.546869137472662 0.6982284834588388
O  -12.0864885570135 11.874228539991607 -2.654224262885652
H  -12.845207909638818 11.29166354248499 -2.619658116885695
H  -11.690887442281328 11.702619231678256 -3.5087895641588975
O  13.7349768338096 3.5344131109808807 -11.111537482122431
H  14.60001956949921 3.3568049871490047 -11.480845308463701
H  13.210262769689106 3.8240545446903527 -11.857871751475134
O  12.412593424788929 3.2247076784225377 -13.505761995578961
H  12.99361496791047 3.225598852651535 -14.26644920005562
H  12.338836533748005 2.302222668225123 -13.26119466782971
O  -14.78086261407453 10.308000033707248 -11.289533962230587
H  -14.705384238352172 9.552563157240849 -11.872500506116562
H  -14.146761535606174 10.9386924477899 -11.63067140069376
O  6.972866631932758 4.639213547988329 -6.733885297936961
H  6.958385620120976 3.7435913298590213 -6.396419753758891
H  7.64451428347003 4.627903375990747 -7.415789516292596
O  5.836288741162175 10.124752406143266 -3.4453507886283123
H  5.7681696764627945 10.248902027328533 -4.392017844884836
H  5.633808959881969 10.984050861866203 -3.0754319421467518
O  12.40730831414081 -14.460128053513998 -8.741725435378724
H  12.64980161395007 -13.730923924758493 -9.31241816265926
H  13.180186764174211 -15.02475269917728 -8.732251164909
O  3.580326121529901 5.296879167987102 -3.7116770557613528
H  3.3210571573498475 4.562258247470058 -4.267863677471233
H  2.895224982203346 5.95201153127403 -3.844605105039513
O  12.652031733033189 13.292655212733049 -4.592827428553591
H  12.635843075708069 13.728467257106622 -3.740749004832927
H  13.502635653952435 12.854660111526396 -4.622240212392188
O  -5.058567367691974 12.681517624099106 2.5352624919370474
H  -4.530755437557842 11.944153703129064 2.2287647508733883
H  -5.943056914736548 12.325229108980839 2.6187405488206594
O  -14.3170736635963 9.474436391863723 4.821809615335658
H  -13.400096578144451 9.215198027797758 4.73136434917988
H  -14.48917709020501 10.01963391860288 4.054103995840526
O  -2.673220473953426 0.8435878255411194 13.760473811003322
H  -1.8775022725784976 1.3257724464447946 13.985334626135668
H  -2.407413763857387 0.2598938185966007 13.049924762772076
O  14.50704042359737 -6.011054170289482 -11.03430053735182
H  14.582199869121872 -5.460209058331364 -11.813500493202469
H  15.400129257877417 -6.069899828262547 -10.694946189450718
O  9.970830031216607 12.932914120064268 -2.1207484196760746
H  10.662495816139273 12.857441483523136 -1.4633792890362194
H  9.997916472624418 13.850062339778159 -2.3933971287961726
O  11.349130992364437 4.935276452495339 1.6043096938143033
H  10.84867079594986 4.38140843317183 1.0051422215724493
H  12.263342313673434 4.7090531155906215 1.43321757638189
O  -13.993427297136428 14.328547917017039 -5.077291417223265
H  -13.807520369498343 13.819772721009269 -5.866479775602161
H  -14.919730065277747 14.55784519182628 -5.152243350594854
O  -14.817398601421134 -15.319310430528642 -8.878771009453473
H  -14.522598346652838 -15.337991882229307 -9.789252016376878
H  -14.155867591396136 -15.82059732390049 -8.401990112052726
O  5.127487744477741 10.676188865038492 -6.047635550629772
H  5.445706101834025 10.758893389350451 -6.946595443793619
H  4.814982315658779 11.5523805047476 -5.822113005681607
O  8.660401728777698 13.532764271375921 12.368845156853927
H  8.971367779912141 12.999085171830947 13.100089701837392
H  8.682159715073308 14.430387277774958 12.700554938489725
O  2.8372710662339333 -14.143749775535856 -13.096043243725347
H  3.0731272800204525 -13.939010525098293 -12.191230812021455
H  2.8395917899670438 -15.100189776591929 -13.13410883762024
O  6.347090396635964 5.8028102515342725 -11.828104029215076
H  7.145238443356532 6.003647691599899 -11.33937519949313
H  5.859966452690166 6.6266861512745425 -11.841166030562835
O  9.910872901533839 2.5655309409817875 0.572465779007465
H  9.970718356061028 1.636772260009568 0.7962015269525224
H  9.193804002268934 2.8968906124852762 1.1130624980369759
O  10.989363517950437 7.42192066081854 -4.800965039974897
H  10.045233331997292 7.309239151491138 -4.690724755844567
H  11.07493396628357 8.186769681104082 -5.3701008105583945
O  -7.10695507231606 -11.015349430354128 13.811847091669527
H  -6.62177667263121 -10.792341737327497 14.606265961125398
H  -7.828679665112343 -11.564720503564827 14.117685099264591
O  -14.420343797795784 7.465064850685739 -6.616141322095929
H  -14.62562956986839 7.256532952024283 -7.527516135135306
H  -15.199591094367644 7.199496438601416 -6.12779828681661
O  6.192387654499028 -12.823663265524551 12.70235867743978
H  6.856626470779224 -13.371803587763605 13.120163455894634
H  6.677543650135592 -12.066306260115002 12.374843979949219
O  4.154541397808439 9.671613403949289 2.6189504445273366
H  3.880659002728273 10.127739811528267 3.414669606538409
H  3.434921901727235 9.070242472717933 2.4272928468508437
O  9.730206549537296 10.868891932899276 9.002627742448846
H  10.642739132608131 10.962035101023416 8.729057850312987
H  9.307289548218279 10.411484402590137 8.275887477960095
O  4.9014347462503 11.668391513929546 8.26778029596898
H  5.618455154342125 11.98536364011141 7.718560616404474
H  4.32489124580125 12.425565165504926 8.370335180139925
O  11.112050002621366 13.054736549333185 -9.648133890026996
H  11.390216785325201 13.35161683484458 -8.781694516560954
H  11.752430230092514 12.385508669949786 -9.889544454289108
O  7.032607521370759 11.868906016580159 -13.972348836568557
H  7.846687459874141 12.359519457137226 -14.085504289324668
H  7.235755009518899 10.989855248727999 -14.292087317854412
O  2.6452780154376003 5.151596708289599 -11.796530099941581
H  2.194225054703213 4.34448686986895 -12.044233120017422
H  3.227143527965892 5.337230200038215 -12.533554239904962
O  13.739073180092905 7.719736397445374 5.303366557169023
H  14.599632210999186 8.098857361575382 5.1246564575659805
H  13.124672051726638 8.291461721904337 4.8430696338120365
O  4.20879583410005 6.780027688850567 4.398201614289698
H  3.6363382125387975 6.45013759815968 5.090802978999404
H  3.6102577771884303 7.067593963012532 3.708789050427953
O  13.965204915136052 3.7070724864988067 14.058045635902214
H  13.56742211384301 3.4447582200531732 13.227869799448332
H  14.898684136536215 3.528745339701599 13.943818569290713
O  7.520208068084316 7.175952950012503 9.37654916741041
H  8.336507489137334 7.666347340512884 9.279593261083745
H  6.854582863666275 7.736749484620916 8.978199842279825
O  14.332528299107619 4.454285600524874 -5.446219277412191
H  15.182862599935804 4.881427036284642 -5.342712651974599
H  13.748387023503943 5.151578705868964 -5.744201065770243
O  14.777060576628553 -14.384011624612327 7.767575186753315
H  15.051077176216312 -14.557472923521095 6.866987638677838
H  13.82606288414621 -14.28879472818047 7.714954066045902
O  -0.3394484766183347 8.688411412577235 13.826812847660747
H  -1.0235077857558976 9.311514577064662 14.071837660292754
H  0.08238502613244866 9.082993719481497 13.063534949479179
O  -13.431696673691897 4.901262116515502 11.091269394063271
H  -12.845515085755927 4.321532827146238 10.604918751183437
H  -14.021473480358464 5.2582516703080975 10.427226001190103
O  11.480422314965686 -5.459560219072085 14.676609074971878
H  10.783073041593598 -5.345389875020552 15.322287767731622
H  11.095095506852735 -5.1627594542606845 13.852191457635731
O  14.08894544947373 10.836369595017493 10.964240395046245
H  13.687330018332904 10.886630957413846 11.83165649573667
H  13.734930342901368 10.033361344308576 10.58203246154758
O  12.489190610482662 8.995897412794411 9.65166988488107
H  12.133791494455107 9.032224826254765 8.763636305462212
H  12.057040792159734 8.241671152679741 10.052445550178073
O  11.514647817577437 2.66437704637731 9.031372001874045
H  11.241562441165517 3.5696372187895333 8.882508815519904
H  10.908466254469865 2.141468677344367 8.506641022265327
O  -12.082081921430639 10.0971983779564 8.095518931278885
H  -11.125553650924513 10.06225986881693 8.103569963450484
H  -12.308878806975038 10.637361952169925 8.8524986777831
O  8.934651211672236 6.156929569518508 12.172202252020575
H  9.600776911175885 6.5605502040405455 11.615786232601511
H  8.128085082004032 6.626799120646027 11.960292992636672
O  13.119053440822304 -0.5997749745720697 5.17609400589627
H  13.069089939096246 0.33827600614467374 5.359930500882934
H  12.264505348826289 -0.817187354415519 4.803654391496654
O  11.19330320368096 1.9311018111273504 13.842580963854447
H  12.058826490967672 1.5224235415851648 13.851711242369742
H  11.371070032874462 2.8706499288417255 13.885941542208757
O  14.93452000538266 12.399161172051311 6.879589587058552
H  14.708703082766093 12.88889270434974 7.670412952008005
H  15.523577964342891 11.709101841597782 7.184648093343803
O  12.597585886042225 7.712180249467667 13.462097065675689
H  13.3358419642805 7.974185794623512 14.012154251856533
H  12.986396594394286 7.154477115498869 12.78828307186916
O  12.885386443445517 2.3201048266309723 11.606167432816337
H  12.4280946259097 2.605511759720006 10.81518138554568
H  12.81326353045992 1.3657045498508424 11.593909866914434
O  5.882789333579364 4.867516816621823 9.477225173885259
H  6.548643679270533 5.417325503575626 9.890238792173658
H  6.203296696521465 4.73131959557185 8.585621451318152
O  11.18257097261995 -14.942090498591682 11.529928847599319
H  11.089510609032784 -15.747240781561047 11.020709207973416
H  11.994514915951353 -15.062121129742145 12.022444361355412
O  9.207855791956748 -3.4897575399078473 14.375020183808932
H  8.733425805740858 -2.660622144462616 14.435704078018412
H  8.563563070354567 -4.153489258660688 14.62114808801569
O  -11.117282090476131 -12.981417823327222 -13.419254715614258
H  -11.74567794988703 -12.41420233860933 -13.866039998036184
H  -11.65758658406093 -13.568153943622818 -12.890063228371789
O  14.159099421153503 6.423929400496684 11.479585992566099
H  14.790474943539627 5.775337600715695 11.79091456145412
H  14.3973087827745 6.570587523321665 10.564173765281078
O  11.431203853350036 6.4969133270046475 10.762767678752414
H  12.308459653380519 6.341823635434461 11.11291236270306
H  11.354010172624196 5.8863190802650625 10.0296594655111
O  9.311276284948606 13.56872675333178 9.631530367190708
H  8.963476473242192 13.735203045050266 10.507631266682314
H  9.434215137977565 12.620032651352254 9.598403488337722
O  4.439326528725927 7.166338518992857 10.268878077503473
H  4.571048247540009 6.218379733332899 10.284858700148337
H  5.11658560549276 7.512568485155327 10.849977728411499
O  5.803688133364446 -11.746704913684106 5.3480814134733325
H  5.601818116723463 -11.73389075462633 4.412498095683641
H  6.756656708279851 -11.827805493611077 5.38688143894457
O  14.115460641349564 13.156483306887166 9.328566641844855
H  14.675277408093695 13.734179736713653 9.847318869266807
H  13.960772847768128 12.40033952895523 9.894738103885363
O  1.890169989142161 -14.399525121632738 12.066035950722977
H  2.267434813411881 -14.84638702549087 12.823807382004455
H  2.0914634864493182 -13.474579085099553 12.20811905408421
O  11.225220582218874 10.755053694432437 -11.118377749873096
H  10.649008207384647 11.4958142224888 -10.930003149730416
H  10.896974311286666 10.39964943983655 -11.944316035855529
O  2.096775016444761 12.82976494184074 9.849413644491996
H  2.597314649737468 12.889102747459987 10.663152516087086
H  2.0990960151037794 11.897192760441884 9.633692550800262
O  8.648237970537341 9.303102492991531 7.037325352037646
H  7.990649926921398 8.71425471424081 6.6670982471802915
H  8.886632269295989 9.88215633707824 6.313380150530561
O  6.269500216086815 7.946015413439977 5.790589340694811
H  5.5683097775332175 7.664823826461017 5.202801019008659
H  5.869599480060859 7.9422814537833295 6.6602428979741095
O  -11.769552766227973 14.084635103866823 8.878354398412302
H  -12.038183239378473 13.990442935970037 7.964463072696166
H  -11.11128676634153 14.77942204882925 8.864613025823104
O  9.435650591866118 -6.234288811190004 5.087460761768234
H  10.1935521334582 -6.017591508024406 5.630470322338264
H  8.713535816756192 -5.739654923041026 5.474913235085831
O  -12.260293605156514 5.554245461910287 -14.556870170583007
H  -13.063393127740515 5.389504782850754 -14.062781599266376
H  -12.450600069135263 5.2329914554747905 -15.438239085359562
O  3.6287256035466937 10.941790050027965 4.957655452502082
H  4.344066622723616 11.457977568413838 5.329232527902207
H  2.834512843620259 11.345362072725075 5.30778052341754
O  9.045617664981654 -13.99701174093038 8.358068568242961
H  8.337888557297697 -13.358433212082534 8.445067553574667
H  8.599282820325717 -14.833407557743836 8.225935699961553
O  13.82884458763019 0.4681942286454521 13.986745057321869
H  14.272097244574836 1.3161098987040754 13.958497059199829
H  14.487126348771106 -0.13537101061658652 14.331137240335835
O  8.623745389380854 4.794229292762755 -8.875375776570904
H  9.48445610541945 4.477123893002042 -8.601782868116976
H  8.797180566270772 5.309921660608872 -9.662912107148603
O  6.07478354913315 6.248921142340304 2.3177368060792793
H  5.406483990938177 6.619857005075504 2.893943485206357
H  6.5218815430795996 7.010074511683623 1.9476276560117225
O  14.42328965911446 -9.20489089111071 6.761284369026413
H  14.011100486441352 -9.194185952614589 5.897445645050571
H  13.844922037399074 -9.748326808455507 7.296448034373998
O  -9.932416088325766 4.598681929335785 8.25588404677674
H  -9.623269866960898 5.1891759313831445 8.942890086181981
H  -10.694678615895388 4.163921468998117 8.638207250372213
O  9.649676055534915 12.28660281028537 14.59894120506622
H  9.703882451287395 11.381873019123853 14.291114106743601
H  9.780650551226932 12.226390035019097 15.545224436445867
O  7.359364409695464 -14.987707183400785 -14.947638212470194
H  7.916869271525164 -15.404417008474212 -14.290543773640525
H  7.929260158765572 -14.87317480223152 -15.708120309348795
O  -12.935653433067513 -13.084066633598832 4.661628868460131
H  -12.69956402299541 -12.719395775884713 3.8086876003746815
H  -13.15296594098152 -13.99838454651257 4.479887627002533
O  1.0590020773007889 13.6361126014483 3.5785663495233533
H  0.1525656647826989 13.94012753364563 3.6252546979600258
H  1.1780064422210665 13.113528489361759 4.371646205365122
O  5.372990811263792 8.649194399875107 8.201033929143094
H  5.3474886040828284 9.590980518818448 8.370209560993237
H  4.943040819880863 8.257110820406323 8.9610637459517
O  -14.05214180505044 -9.4674953713401 -14.096817810509082
H  -13.997964856033189 -8.833936551570464 -14.812289634485849
H  -13.220754154585514 -9.375613121104776 -13.631431865767018
O  -10.383518066160324 10.212258569099848 10.986900318051621
H  -11.271901346105155 10.567558196706885 10.959166343325332
H  -10.462861577926382 9.40727965545513 11.498706342386383
O  -4.928462194711775 10.66504207407153 6.9559272831175765
H  -4.385356662679902 9.888131220301373 7.088885010188459
H  -4.326965449712658 11.40079244085845 7.070403980946179
O  -1.8000106688053412 13.625237822548835 3.0395664946041476
H  -1.7277987307945497 12.985773969305088 2.330974039648028
H  -2.7351242385770327 13.823466200451307 3.0895662210069545
