6    
Iteration 0 Energy -127.12256309
O        0.0000000000   -1.4330000000    0.0000000000
H       -0.9620000000   -1.6700000000    0.0000000000
C        0.0000000000    0.0000000000    0.0000000000
H       -0.4900000000    0.4170000000    0.8860000000
H        1.0400000000    0.3310000000    0.0000000000
H       -0.4900000000    0.4170000000   -0.8860000000
6    
Iteration 1 Energy -127.12258128
O        0.0248455387   -1.4632369295    0.0002960379
H       -0.9807309225   -1.6766240743    0.0000863847
C       -0.0027734622   -0.0015909672    0.0004258471
H       -0.4971914840    0.4343817958    0.9000943330
H        1.0526762324    0.3356245383    0.0003490032
H       -0.4972428665    0.4342784276   -0.8992913806
6    
Iteration 2 Energy -127.12259038
O        0.0380210084   -1.4756660232    0.0003308658
H       -0.9933845733   -1.6810870460    0.0001030915
C       -0.0024666564   -0.0004414558    0.0004956866
H       -0.5009924011    0.4405241392    0.9068115934
H        1.0596979847    0.3392299898    0.0004016559
H       -0.5010552895    0.4403964184   -0.9058915083
6    
Iteration 3 Energy -127.12259588
O        0.0455130604   -1.4816203858    0.0003432557
H       -1.0009655766   -1.6837575728    0.0001091069
C       -0.0020316767    0.0004982579    0.0005222002
H       -0.5029393762    0.4433920352    0.9102310594
H        1.0633385112    0.3412342096    0.0004207804
H       -0.5030075799    0.4432545390   -0.9092690674
6    
Iteration 4 Energy -127.12259796
O        0.0488503777   -1.4843601162    0.0003498658
H       -1.0042878816   -1.6849556449    0.0001123642
C       -0.0018747993    0.0008839850    0.0005358038
H       -0.5038192889    0.4447387645    0.9117823688
H        1.0649749666    0.3421214335    0.0004307275
H       -0.5038900290    0.4445963741   -0.9107982470
6    
Iteration 5 Energy -127.12259895
O        0.0504767391   -1.4856583463    0.0003529027
H       -1.0059153334   -1.6855374858    0.0001138515
C       -0.0017919684    0.0010770675    0.0005420850
H       -0.5042406121    0.4453752516    0.9125238097
H        1.0657582353    0.3425486329    0.0004352939
H       -0.5043125461    0.4452305859   -0.9115295503
6    
Iteration 6 Energy -127.12259950
O        0.0512643323   -1.4862795984    0.0003543364
H       -1.0067051268   -1.6858188292    0.0001145515
C       -0.0017505502    0.0011716391    0.0005450561
H       -0.5044431829    0.4456794990    0.9128800036
H        1.0661347294    0.3427543943    0.0004374482
H       -0.5045156865    0.4455337538   -0.9118809662
6    
Iteration 7 Energy -127.12259976
O        0.0516448574   -1.4865781327    0.0003550208
H       -1.0070869870   -1.6859545233    0.0001148852
C       -0.0017302954    0.0012175147    0.0005464760
H       -0.5045407455    0.4458256082    0.9130514521
H        1.0663159849    0.3428535059    0.0004384764
H       -0.5046135225    0.4456793463   -0.9120501351
6    
Iteration 8 Energy -127.12259986
O        0.0518284971   -1.4867218385    0.0003553492
H       -1.0072713299   -1.6860199518    0.0001150452
C       -0.0017204664    0.0012396947    0.0005471578
H       -0.5045877599    0.4458959197    0.9131340471
H        1.0664033121    0.3429012667    0.0004389698
H       -0.5046606683    0.4457494095   -0.9121316365
6    
Iteration 9 Energy -127.12259992
O        0.0519484406   -1.4868156219    0.0003555633
H       -1.0073917419   -1.6860626722    0.0001151496
C       -0.0017140372    0.0012541891    0.0005476023
H       -0.5046184528    0.4459418014    0.9131879625
H        1.0664603179    0.3429324447    0.0004392914
H       -0.5046914469    0.4457951292   -0.9121848391
6    
Iteration 10 Energy -127.12260002
O        0.0520683894   -1.4869094069    0.0003557775
H       -1.0075121537   -1.6861053910    0.0001152539
C       -0.0017076109    0.0012686826    0.0005480468
H       -0.5046491469    0.4459876848    0.9132418787
H        1.0665173239    0.3429636202    0.0004396130
H       -0.5047222268    0.4458408508   -0.9122380424
6    
Iteration 11 Energy -127.12260012
O        0.0521883421   -1.4870031925    0.0003559916
H       -1.0076325640   -1.6861481078    0.0001153583
C       -0.0017011879    0.0012831749    0.0005484914
H       -0.5046798421    0.4460335696    0.9132957950
H        1.0665743296    0.3429947929    0.0004399346
H       -0.5047530077    0.4458865736   -0.9122912458
6    
Iteration 12 Energy -127.12260019
O        0.0523082989   -1.4870969788    0.0003562058
H       -1.0077529727   -1.6861908226    0.0001154626
C       -0.0016947679    0.0012976661    0.0005489360
H       -0.5047105382    0.4460794557    0.9133497116
H        1.0666313349    0.3430259627    0.0004402562
H       -0.5047837895    0.4459322977   -0.9123444495
6    
Iteration 13 Energy -127.12260025
O        0.0524282598   -1.4871907657    0.0003564199
H       -1.0078733800   -1.6862335354    0.0001155670
C       -0.0016883511    0.0013121563    0.0005493805
H       -0.5047412352    0.4461253432    0.9134036283
H        1.0666883400    0.3430571298    0.0004405778
H       -0.5048145723    0.4459780231   -0.9123976534
6    
Iteration 14 Energy -127.12260030
O        0.0525482246   -1.4872845534    0.0003566341
H       -1.0079937857   -1.6862762461    0.0001156714
C       -0.0016819374    0.0013266453    0.0005498251
H       -0.5047719332    0.4461712319    0.9134575453
H        1.0667453446    0.3430882940    0.0004408994
H       -0.5048453560    0.4460237499   -0.9124508575
6    
Iteration 15 Energy -127.12260038
O        0.0526681935   -1.4873783417    0.0003568483
H       -1.0081141900   -1.6863189548    0.0001157758
C       -0.0016755268    0.0013411333    0.0005502697
H       -0.5048026322    0.4462171220    0.9135114624
H        1.0668023490    0.3431194553    0.0004412210
H       -0.5048761407    0.4460694779   -0.9125040618
6    
Iteration 16 Energy -127.12260044
O        0.0527881664   -1.4874721307    0.0003570626
H       -1.0082345927   -1.6863616615    0.0001158802
C       -0.0016691193    0.0013556201    0.0005507143
H       -0.5048333322    0.4462630135    0.9135653798
H        1.0668593531    0.3431506139    0.0004415425
H       -0.5049069264    0.4461152073   -0.9125572663
6    
Iteration 17 Energy -127.12260049
O        0.0529081434   -1.4875659204    0.0003572768
H       -1.0083549940   -1.6864043662    0.0001159846
C       -0.0016627150    0.0013701059    0.0005511589
H       -0.5048640331    0.4463089062    0.9136192974
H        1.0669163568    0.3431817696    0.0004418640
H       -0.5049377130    0.4461609380   -0.9126104709
6    
Iteration 18 Energy -127.12260058
O        0.0530281244   -1.4876597108    0.0003574911
H       -1.0084753937   -1.6864470689    0.0001160891
C       -0.0016563138    0.0013845906    0.0005516035
H       -0.5048947350    0.4463548003    0.9136732152
H        1.0669733602    0.3432129226    0.0004421856
H       -0.5049685006    0.4462066700   -0.9126636759
6    
Iteration 19 Energy -127.12260065
O        0.0531481094   -1.4877535018    0.0003577053
H       -1.0085957920   -1.6864897695    0.0001161935
C       -0.0016499157    0.0013990742    0.0005520481
H       -0.5049254379    0.4464006957    0.9137271332
H        1.0670303633    0.3432440727    0.0004425071
H       -0.5049992892    0.4462524033   -0.9127168810
6    
Iteration 20 Energy -127.12260075
O        0.0532680985   -1.4878472935    0.0003579196
H       -1.0087161888   -1.6865324682    0.0001162980
C       -0.0016435207    0.0014135567    0.0005524927
H       -0.5049561418    0.4464465925    0.9137810514
H        1.0670873661    0.3432752200    0.0004428286
H       -0.5050300787    0.4462981379   -0.9127700863
6    
Iteration 21 Energy -127.12260080
O        0.0533880916   -1.4879410860    0.0003581339
H       -1.0088365842   -1.6865751649    0.0001164024
C       -0.0016371288    0.0014280381    0.0005529373
H       -0.5049868466    0.4464924906    0.9138349698
H        1.0671443685    0.3433063644    0.0004431500
H       -0.5050608692    0.4463438738   -0.9128232918
6    
Iteration 22 Energy -127.12260088
O        0.0535080888   -1.4880348791    0.0003583482
H       -1.0089569780   -1.6866178596    0.0001165069
C       -0.0016307401    0.0014425184    0.0005533819
H       -0.5050175524    0.4465383900    0.9138888884
H        1.0672013707    0.3433375061    0.0004434715
H       -0.5050916606    0.4463896111   -0.9128764976
6    
Iteration 23 Energy -127.12260093
O        0.0536280900   -1.4881286728    0.0003585626
H       -1.0090773704   -1.6866605522    0.0001166114
C       -0.0016243544    0.0014569976    0.0005538266
H       -0.5050482591    0.4465842908    0.9139428073
H        1.0672583725    0.3433686449    0.0004437930
H       -0.5051224530    0.4464353497   -0.9129297035
6    
Iteration 24 Energy -127.12260103
O        0.0537480953   -1.4882224673    0.0003587769
H       -1.0091977614   -1.6867032429    0.0001167159
C       -0.0016179719    0.0014714757    0.0005542712
H       -0.5050789669    0.4466301929    0.9139967263
H        1.0673153741    0.3433997809    0.0004441144
H       -0.5051532464    0.4464810896   -0.9129829097
6    
Iteration 25 Energy -127.12260108
O        0.0538681046   -1.4883162625    0.0003589913
H       -1.0093181508   -1.6867459316    0.0001168204
C       -0.0016115925    0.0014859528    0.0005547159
H       -0.5051096756    0.4466760964    0.9140506456
H        1.0673723753    0.3434309142    0.0004444359
H       -0.5051840407    0.4465268308   -0.9130361161
6    
Iteration 26 Energy -127.12260117
O        0.0539881180   -1.4884100583    0.0003592057
H       -1.0094385389   -1.6867886184    0.0001169250
C       -0.0016052162    0.0015004287    0.0005551605
H       -0.5051403852    0.4467220012    0.9141045651
H        1.0674293763    0.3434620446    0.0004447573
H       -0.5052148360    0.4465725734   -0.9130893227
6    
Iteration 27 Energy -127.12260128
O        0.0541081354   -1.4885038549    0.0003594201
H       -1.0095589254   -1.6868313031    0.0001170295
C       -0.0015988431    0.0015149036    0.0005556052
H       -0.5051710959    0.4467679073    0.9141584848
H        1.0674863769    0.3434931722    0.0004450787
H       -0.5052456323    0.4466183173   -0.9131425295
6    
Iteration 28 Energy -127.12260132
O        0.0542281568   -1.4885976521    0.0003596345
H       -1.0096793105   -1.6868739859    0.0001171341
C       -0.0015924730    0.0015293774    0.0005560499
H       -0.5052018075    0.4468138148    0.9142124048
H        1.0675433772    0.3435242969    0.0004454001
H       -0.5052764295    0.4466640625   -0.9131957366
6    
Iteration 29 Energy -127.12260141
O        0.0543481824   -1.4886914500    0.0003598489
H       -1.0097996942   -1.6869166666    0.0001172386
C       -0.0015861060    0.0015438501    0.0005564946
H       -0.5052325201    0.4468597236    0.9142663250
H        1.0676003773    0.3435554189    0.0004457215
H       -0.5053072277    0.4467098090   -0.9132489439
6    
Iteration 30 Energy -127.12260150
O        0.0544682120   -1.4887852486    0.0003600634
H       -1.0099200764   -1.6869593455    0.0001173432
C       -0.0015797422    0.0015583217    0.0005569392
H       -0.5052632337    0.4469056338    0.9143202453
H        1.0676573770    0.3435865381    0.0004460428
H       -0.5053380269    0.4467555569   -0.9133021514
6    
Iteration 31 Energy -127.12260158
O        0.0545882456   -1.4888790479    0.0003602778
H       -1.0100404572   -1.6870020223    0.0001174478
C       -0.0015733815    0.0015727923    0.0005573839
H       -0.5052939482    0.4469515453    0.9143741660
H        1.0677143764    0.3436176544    0.0004463642
H       -0.5053688270    0.4468013061   -0.9133553591
6    
Iteration 32 Energy -127.12260167
O        0.0547082833   -1.4889728479    0.0003604923
H       -1.0101608365   -1.6870446972    0.0001175524
C       -0.0015670238    0.0015872617    0.0005578286
H       -0.5053246638    0.4469974582    0.9144280868
H        1.0677713756    0.3436487680    0.0004466856
H       -0.5053996281    0.4468470566   -0.9134085671
6    
Iteration 33 Energy -127.12260172
O        0.0548283251   -1.4890666486    0.0003607068
H       -1.0102812144   -1.6870873701    0.0001176570
C       -0.0015606693    0.0016017301    0.0005582733
H       -0.5053553803    0.4470433724    0.9144820079
H        1.0678283745    0.3436798787    0.0004470069
H       -0.5054304302    0.4468928085   -0.9134617753
6    
Iteration 34 Energy -127.12260180
O        0.0549483709   -1.4891604500    0.0003609213
H       -1.0104015909   -1.6871300410    0.0001177616
C       -0.0015543179    0.0016161974    0.0005587181
H       -0.5053860977    0.4470892880    0.9145359292
H        1.0678853730    0.3437109867    0.0004473282
H       -0.5054612333    0.4469385617   -0.9135149837
6    
Iteration 35 Energy -127.12260188
O        0.0550684208   -1.4892542521    0.0003611358
H       -1.0105219660   -1.6871727100    0.0001178663
C       -0.0015479696    0.0016306636    0.0005591628
H       -0.5054168162    0.4471352050    0.9145898507
H        1.0679423713    0.3437420918    0.0004476495
H       -0.5054920373    0.4469843162   -0.9135681923
6    
Iteration 36 Energy -127.12260198
O        0.0551884748   -1.4893480549    0.0003613503
H       -1.0106423396   -1.6872153771    0.0001179709
C       -0.0015416244    0.0016451287    0.0005596075
H       -0.5054475356    0.4471811232    0.9146437725
H        1.0679993693    0.3437731942    0.0004479708
H       -0.5055228422    0.4470300721   -0.9136214012
6    
Iteration 37 Energy -127.12260205
O        0.0553085328   -1.4894418584    0.0003615649
H       -1.0107627118   -1.6872580422    0.0001180756
C       -0.0015352823    0.0016595928    0.0005600522
H       -0.5054782560    0.4472270429    0.9146976945
H        1.0680563671    0.3438042937    0.0004482921
H       -0.5055536482    0.4470758293   -0.9136746103
6    
Iteration 38 Energy -127.12260210
O        0.0554285949   -1.4895356626    0.0003617795
H       -1.0108830826   -1.6873007053    0.0001181802
C       -0.0015289433    0.0016740557    0.0005604970
H       -0.5055089774    0.4472729639    0.9147516168
H        1.0681133645    0.3438353905    0.0004486134
H       -0.5055844551    0.4471215879   -0.9137278196
6    
Iteration 39 Energy -127.12260216
O        0.0555486611   -1.4896294675    0.0003619941
H       -1.0110034520   -1.6873433665    0.0001182849
C       -0.0015226073    0.0016885176    0.0005609417
H       -0.5055396998    0.4473188862    0.9148055393
H        1.0681703617    0.3438664844    0.0004489346
H       -0.5056152630    0.4471673478   -0.9137810292
6    
Iteration 40 Energy -127.12260226
O        0.0556687313   -1.4897232731    0.0003622087
H       -1.0111238200   -1.6873860258    0.0001183896
C       -0.0015162745    0.0017029784    0.0005613865
H       -0.5055704231    0.4473648100    0.9148594620
H        1.0682273586    0.3438975755    0.0004492559
H       -0.5056460719    0.4472131090   -0.9138342390
6    
Iteration 41 Energy -127.12260235
O        0.0557888057   -1.4898170794    0.0003624233
H       -1.0112441866   -1.6874286831    0.0001184943
C       -0.0015099448    0.0017174382    0.0005618312
H       -0.5056011474    0.4474107350    0.9149133849
H        1.0682843552    0.3439286639    0.0004495771
H       -0.5056768817    0.4472588716   -0.9138874491
6    
Iteration 42 Energy -127.12260241
O        0.0559088841   -1.4899108863    0.0003626379
H       -1.0113645518   -1.6874713385    0.0001185990
C       -0.0015036182    0.0017318968    0.0005622760
H       -0.5056318727    0.4474566615    0.9149673081
H        1.0683413515    0.3439597494    0.0004498983
H       -0.5057076925    0.4473046355   -0.9139406594
6    
Iteration 43 Energy -127.12260246
O        0.0560289665   -1.4900046940    0.0003628526
H       -1.0114849156   -1.6875139919    0.0001187038
C       -0.0014972947    0.0017463544    0.0005627208
H       -0.5056625990    0.4475025893    0.9150212316
H        1.0683983476    0.3439908322    0.0004502195
H       -0.5057385043    0.4473504007   -0.9139938699
6    
Iteration 44 Energy -127.12260255
O        0.0561490531   -1.4900985025    0.0003630672
H       -1.0116052780   -1.6875566434    0.0001188085
C       -0.0014909743    0.0017608109    0.0005631656
H       -0.5056933262    0.4475485184    0.9150751553
H        1.0684553434    0.3440219122    0.0004505407
H       -0.5057693170    0.4473961673   -0.9140470807
6    
Iteration 45 Energy -127.12260261
O        0.0562691437   -1.4901923116    0.0003632819
H       -1.0117256390   -1.6875992930    0.0001189132
C       -0.0014846570    0.0017752664    0.0005636104
H       -0.5057240544    0.4475944490    0.9151290792
H        1.0685123389    0.3440529893    0.0004508619
H       -0.5058001307    0.4474419353   -0.9141002917
6    
Iteration 46 Energy -127.12260266
O        0.0563892385   -1.4902861214    0.0003634966
H       -1.0118459986   -1.6876419407    0.0001190180
C       -0.0014783427    0.0017897207    0.0005640552
H       -0.5057547837    0.4476403809    0.9151830034
H        1.0685693341    0.3440840637    0.0004511831
H       -0.5058309454    0.4474877046   -0.9141535030
6    
Iteration 47 Energy -127.12260273
O        0.0565093373   -1.4903799319    0.0003637113
H       -1.0119663568   -1.6876845864    0.0001191228
C       -0.0014720316    0.0018041740    0.0005645000
H       -0.5057855138    0.4476863141    0.9152369278
H        1.0686263291    0.3441151353    0.0004515043
H       -0.5058617611    0.4475334752   -0.9142067145
6    
Iteration 48 Energy -127.12260285
O        0.0566294402   -1.4904737431    0.0003639261
H       -1.0120867137   -1.6877272303    0.0001192276
C       -0.0014657236    0.0018186262    0.0005649448
H       -0.5058162450    0.4477322488    0.9152908525
H        1.0686833239    0.3441462041    0.0004518254
H       -0.5058925777    0.4475792472   -0.9142599263
6    
Iteration 49 Energy -127.12260292
O        0.0567495472   -1.4905675551    0.0003641408
H       -1.0122070692   -1.6877698722    0.0001193324
C       -0.0014594186    0.0018330774    0.0005653896
H       -0.5058469772    0.4477781848    0.9153447774
H        1.0687403183    0.3441772701    0.0004521465
H       -0.5059233953    0.4476250206   -0.9143131383
6    
Iteration 50 Energy -127.12260299
O        0.0568696582   -1.4906613677    0.0003643556
H       -1.0123274233   -1.6878125122    0.0001194372
C       -0.0014531167    0.0018475275    0.0005658344
H       -0.5058777103    0.4478241221    0.9153987026
H        1.0687973125    0.3442083333    0.0004524677
H       -0.5059542139    0.4476707953   -0.9143663505
6    
Iteration 51 Energy -127.12260308
O        0.0569897734   -1.4907551811    0.0003645703
H       -1.0124477761   -1.6878551503    0.0001195420
C       -0.0014468180    0.0018619765    0.0005662793
H       -0.5059084444    0.4478700609    0.9154526280
H        1.0688543065    0.3442393937    0.0004527888
H       -0.5059850334    0.4477165714   -0.9144195631
6    
Iteration 52 Energy -127.12260317
O        0.0571098926   -1.4908489952    0.0003647851
H       -1.0125681274   -1.6878977864    0.0001196468
C       -0.0014405223    0.0018764244    0.0005667241
H       -0.5059391795    0.4479160010    0.9155065537
H        1.0689113002    0.3442704513    0.0004531099
H       -0.5060158540    0.4477623488   -0.9144727758
6    
Iteration 53 Energy -127.12260326
O        0.0572300160   -1.4909428099    0.0003650000
H       -1.0126884775   -1.6879404207    0.0001197517
C       -0.0014342297    0.0018908713    0.0005671690
H       -0.5059699156    0.4479619425    0.9155604796
H        1.0689682936    0.3443015062    0.0004534310
H       -0.5060466755    0.4478081275   -0.9145259889
6    
Iteration 54 Energy -127.12260332
O        0.0573501434   -1.4910366254    0.0003652148
H       -1.0128088261   -1.6879830531    0.0001198565
C       -0.0014279401    0.0019053171    0.0005676138
H       -0.5060006526    0.4480078853    0.9156144058
H        1.0690252868    0.3443325583    0.0004537520
H       -0.5060774979    0.4478539077   -0.9145792021
6    
Iteration 55 Energy -127.12260340
O        0.0574702750   -1.4911304416    0.0003654296
H       -1.0129291735   -1.6880256836    0.0001199614
C       -0.0014216537    0.0019197618    0.0005680587
H       -0.5060313907    0.4480538296    0.9156683323
H        1.0690822797    0.3443636075    0.0004540731
H       -0.5061083214    0.4478996892   -0.9146324157
6    
Iteration 56 Energy -127.12260345
O        0.0575904106   -1.4912242586    0.0003656445
H       -1.0130495194   -1.6880683122    0.0001200663
C       -0.0014153704    0.0019342055    0.0005685036
H       -0.5060621297    0.4480997752    0.9157222590
H        1.0691392724    0.3443946540    0.0004543941
H       -0.5061391458    0.4479454720   -0.9146856295
6    
Iteration 57 Energy -127.12260354
O        0.0577105504   -1.4913180762    0.0003658594
H       -1.0131698641   -1.6881109389    0.0001201712
C       -0.0014090901    0.0019486481    0.0005689484
H       -0.5060928697    0.4481457222    0.9157761860
H        1.0691962648    0.3444256977    0.0004547152
H       -0.5061699712    0.4479912562   -0.9147388435
6    
Iteration 58 Energy -127.12260362
O        0.0578306942   -1.4914118946    0.0003660742
H       -1.0132902073   -1.6881535637    0.0001202761
C       -0.0014028129    0.0019630896    0.0005693933
H       -0.5061236107    0.4481916706    0.9158301132
H        1.0692532570    0.3444567387    0.0004550362
H       -0.5062007976    0.4480370418   -0.9147920578
6    
Iteration 59 Energy -127.12260369
O        0.0579508422   -1.4915057136    0.0003662892
H       -1.0134105493   -1.6881961866    0.0001203810
C       -0.0013965388    0.0019775300    0.0005698382
H       -0.5061543527    0.4482376203    0.9158840407
H        1.0693102490    0.3444877768    0.0004553572
H       -0.5062316250    0.4480828287   -0.9148452724
6    
Iteration 60 Energy -127.12260377
O        0.0580709942   -1.4915995334    0.0003665041
H       -1.0135308899   -1.6882388076    0.0001204859
C       -0.0013902678    0.0019919694    0.0005702831
H       -0.5061850956    0.4482835715    0.9159379685
H        1.0693672407    0.3445188122    0.0004556782
H       -0.5062624533    0.4481286170   -0.9148984872
6    
Iteration 61 Energy -127.12260384
O        0.0581911504   -1.4916933540    0.0003667190
H       -1.0136512291   -1.6882814268    0.0001205909
C       -0.0013839999    0.0020064078    0.0005707280
H       -0.5062158396    0.4483295240    0.9159918965
H        1.0694242321    0.3445498448    0.0004559992
H       -0.5062932826    0.4481744067   -0.9149517023
6    
Iteration 62 Energy -127.12260392
O        0.0583113106   -1.4917871752    0.0003669340
H       -1.0137715671   -1.6883240441    0.0001206958
C       -0.0013777350    0.0020208451    0.0005711729
H       -0.5062465845    0.4483754779    0.9160458249
H        1.0694812234    0.3445808746    0.0004563202
H       -0.5063241129    0.4482201977   -0.9150049177
6    
Iteration 63 Energy -127.12260399
O        0.0584314750   -1.4918809971    0.0003671489
H       -1.0138919037   -1.6883666595    0.0001208008
C       -0.0013714732    0.0020352813    0.0005716179
H       -0.5062773304    0.4484214332    0.9160997534
H        1.0695382143    0.3446119016    0.0004566411
H       -0.5063549442    0.4482659901   -0.9150581333
6    
Iteration 64 Energy -127.12260405
O        0.0585516435   -1.4919748198    0.0003673639
H       -1.0140122390   -1.6884092730    0.0001209057
C       -0.0013652145    0.0020497164    0.0005720628
H       -0.5063080773    0.4484673898    0.9161536823
H        1.0695952051    0.3446429259    0.0004569621
H       -0.5063857764    0.4483117838   -0.9151113493
6    
Iteration 65 Energy -127.12260415
O        0.0586718161   -1.4920686432    0.0003675789
H       -1.0141325730   -1.6884518847    0.0001210107
C       -0.0013589589    0.0020641505    0.0005725077
H       -0.5063388252    0.4485133479    0.9162076114
H        1.0696521956    0.3446739474    0.0004572830
H       -0.5064166096    0.4483575790   -0.9151645654
6    
Iteration 66 Energy -127.12260421
O        0.0587919928   -1.4921624673    0.0003677940
H       -1.0142529057   -1.6884944945    0.0001211157
C       -0.0013527063    0.0020785835    0.0005729527
H       -0.5063695741    0.4485593074    0.9162615408
H        1.0697091859    0.3447049661    0.0004576039
H       -0.5064474438    0.4484033755   -0.9152177819
6    
Iteration 67 Energy -127.12260427
O        0.0589121736   -1.4922562922    0.0003680090
H       -1.0143732370   -1.6885371024    0.0001212207
C       -0.0013464568    0.0020930155    0.0005733976
H       -0.5064003239    0.4486052682    0.9163154704
H        1.0697661759    0.3447359820    0.0004579249
H       -0.5064782790    0.4484491733   -0.9152709986
6    
Iteration 68 Energy -127.12260435
O        0.0590323585   -1.4923501178    0.0003682241
H       -1.0144935671   -1.6885797085    0.0001213258
C       -0.0013402104    0.0021074464    0.0005738426
H       -0.5064310748    0.4486512304    0.9163694003
H        1.0698231658    0.3447669952    0.0004582458
H       -0.5065091152    0.4484949726   -0.9153242156
6    
Iteration 69 Energy -127.12260444
O        0.0591525476   -1.4924439441    0.0003684391
H       -1.0146138958   -1.6886223127    0.0001214308
C       -0.0013339671    0.0021218763    0.0005742876
H       -0.5064618266    0.4486971941    0.9164233306
H        1.0698801554    0.3447980056    0.0004585666
H       -0.5065399523    0.4485407732   -0.9153774328
6    
Iteration 70 Energy -127.12260449
O        0.0592727408   -1.4925377711    0.0003686542
H       -1.0147342232   -1.6886649151    0.0001215358
C       -0.0013277268    0.0021363051    0.0005747325
H       -0.5064925794    0.4487431591    0.9164772610
H        1.0699371447    0.3448290132    0.0004588875
H       -0.5065707904    0.4485865752   -0.9154306504
6    
Iteration 71 Energy -127.12260456
O        0.0593929381   -1.4926315988    0.0003688693
H       -1.0148545494   -1.6887075156    0.0001216409
C       -0.0013214896    0.0021507328    0.0005751775
H       -0.5065233333    0.4487891255    0.9165311918
H        1.0699941339    0.3448600181    0.0004592084
H       -0.5066016295    0.4486323786   -0.9154838682
6    
Iteration 72 Energy -127.12260464
O        0.0595131395   -1.4927254273    0.0003690844
H       -1.0149748742   -1.6887501142    0.0001217460
C       -0.0013152555    0.0021651595    0.0005756225
H       -0.5065540880    0.4488350933    0.9165851229
H        1.0700511228    0.3448910201    0.0004595292
H       -0.5066324696    0.4486781833   -0.9155370863
6    
Iteration 73 Energy -127.12260473
O        0.0596333450   -1.4928192565    0.0003692996
H       -1.0150951978   -1.6887927111    0.0001218510
C       -0.0013090244    0.0021795851    0.0005760675
H       -0.5065848438    0.4488810625    0.9166390542
H        1.0701081115    0.3449220195    0.0004598501
H       -0.5066633107    0.4487239894   -0.9155903047
6    
Iteration 74 Energy -127.12260481
O        0.0597535547   -1.4929130864    0.0003695147
H       -1.0152155200   -1.6888353060    0.0001219561
C       -0.0013027964    0.0021940096    0.0005765125
H       -0.5066156006    0.4489270331    0.9166929858
H        1.0701651000    0.3449530160    0.0004601709
H       -0.5066941527    0.4487697969   -0.9156435233
6    
Iteration 75 Energy -127.12260488
O        0.0598737685   -1.4930069171    0.0003697299
H       -1.0153358410   -1.6888778992    0.0001220612
C       -0.0012965715    0.0022084332    0.0005769575
H       -0.5066463584    0.4489730051    0.9167469177
H        1.0702220882    0.3449840098    0.0004604917
H       -0.5067249958    0.4488156058   -0.9156967423
6    
Iteration 76 Energy -127.12260499
O        0.0599939864   -1.4931007485    0.0003699451
H       -1.0154561607   -1.6889204905    0.0001221663
C       -0.0012903496    0.0022228556    0.0005774025
H       -0.5066771171    0.4490189785    0.9168008499
H        1.0702790763    0.3450150008    0.0004608125
H       -0.5067558398    0.4488614161   -0.9157499615
6    
Iteration 77 Energy -127.12260504
O        0.0601142085   -1.4931945806    0.0003701603
H       -1.0155764792   -1.6889630800    0.0001222715
C       -0.0012841308    0.0022372770    0.0005778476
H       -0.5067078769    0.4490649533    0.9168547823
H        1.0703360641    0.3450459890    0.0004611333
H       -0.5067866848    0.4489072277   -0.9158031810
6    
Iteration 78 Energy -127.12260515
O        0.0602344347   -1.4932884135    0.0003703755
H       -1.0156967963   -1.6890056676    0.0001223766
C       -0.0012779151    0.0022516974    0.0005782926
H       -0.5067386376    0.4491109295    0.9169087151
H        1.0703930517    0.3450769745    0.0004614541
H       -0.5068175307    0.4489530408   -0.9158564008
6    
Iteration 79 Energy -127.12260489
O        0.0603546650   -1.4933822471    0.0003705907
H       -1.0158171122   -1.6890482534    0.0001224818
C       -0.0012717024    0.0022661167    0.0005787377
H       -0.5067693993    0.4491569071    0.9169626481
H        1.0704500392    0.3451079572    0.0004617748
H       -0.5068483777    0.4489988552   -0.9159096209
6    
Iteration 80 Energy -127.12260463
O        0.0604748993   -1.4934760817    0.0003708057
H       -1.0159374268   -1.6890908374    0.0001225868
C       -0.0012654928    0.0022805348    0.0005791827
H       -0.5068001619    0.4492028860    0.9170165814
H        1.0705070263    0.3451389371    0.0004620956
H       -0.5068792256    0.4490446710   -0.9159628412
6    
Iteration 81 Energy -127.12260472
O        0.0605951381   -1.4935699172    0.0003710206
H       -1.0160577399   -1.6891334197    0.0001226918
C       -0.0012592861    0.0022949518    0.0005796277
H       -0.5068309255    0.4492488662    0.9170705150
H        1.0705640133    0.3451699143    0.0004624162
H       -0.5069100746    0.4490904881   -0.9160160617
6    
Iteration 82 Energy -127.12260478
O        0.0607153811   -1.4936637534    0.0003712355
H       -1.0161780517   -1.6891760001    0.0001227969
C       -0.0012530826    0.0023093677    0.0005800727
H       -0.5068616901    0.4492948478    0.9171244489
H        1.0706210000    0.3452008887    0.0004627369
H       -0.5069409244    0.4491363066   -0.9160692826
6    
Iteration 83 Energy -127.12260491
O        0.0608356282   -1.4937575904    0.0003714505
H       -1.0162983623   -1.6892185787    0.0001229019
C       -0.0012468820    0.0023237827    0.0005805177
H       -0.5068924557    0.4493408309    0.9171783830
H        1.0706779866    0.3452318603    0.0004630576
H       -0.5069717753    0.4491821264   -0.9161225038
6    
Iteration 84 Energy -127.12260499
O        0.0609558794   -1.4938514281    0.0003716655
H       -1.0164186716   -1.6892611555    0.0001230070
C       -0.0012406846    0.0023381965    0.0005809627
H       -0.5069232223    0.4493868154    0.9172323175
H        1.0707349729    0.3452628292    0.0004633782
H       -0.5070026272    0.4492279477   -0.9161757252
6    
Iteration 85 Energy -127.12260504
O        0.0610761348   -1.4939452665    0.0003718804
H       -1.0165389797   -1.6893037304    0.0001231121
C       -0.0012344902    0.0023526093    0.0005814078
H       -0.5069539899    0.4494328012    0.9172862522
H        1.0707919591    0.3452937953    0.0004636989
H       -0.5070334800    0.4492737703   -0.9162289469
6    
Iteration 86 Energy -127.12260511
O        0.0611963943   -1.4940391057    0.0003720954
H       -1.0166592865   -1.6893463036    0.0001232172
C       -0.0012282988    0.0023670211    0.0005818528
H       -0.5069847584    0.4494787885    0.9173401873
H        1.0708489450    0.3453247587    0.0004640195
H       -0.5070643339    0.4493195944   -0.9162821690
6    
Iteration 87 Energy -127.12260519
O        0.0613166579   -1.4941329456    0.0003723105
H       -1.0167795921   -1.6893888750    0.0001233223
C       -0.0012221105    0.0023814318    0.0005822979
H       -0.5070155280    0.4495247772    0.9173941226
H        1.0709059308    0.3453557193    0.0004643401
H       -0.5070951887    0.4493654198   -0.9163353913
6    
Iteration 88 Energy -127.12260527
O        0.0614369257   -1.4942267862    0.0003725255
H       -1.0168998964   -1.6894314445    0.0001234274
C       -0.0012159253    0.0023958415    0.0005827429
H       -0.5070462985    0.4495707673    0.9174480583
H        1.0709629163    0.3453866771    0.0004646607
H       -0.5071260445    0.4494112467   -0.9163886139
6    
Iteration 89 Energy -127.12260533
O        0.0615571977   -1.4943206276    0.0003727406
H       -1.0170201995   -1.6894740123    0.0001235325
C       -0.0012097431    0.0024102501    0.0005831880
H       -0.5070770701    0.4496167588    0.9175019942
H        1.0710199017    0.3454176322    0.0004649813
H       -0.5071569013    0.4494570749   -0.9164418369
6    
Iteration 90 Energy -127.12260539
O        0.0616774738   -1.4944144697    0.0003729556
H       -1.0171405013   -1.6895165782    0.0001236377
C       -0.0012035640    0.0024246576    0.0005836331
H       -0.5071078426    0.4496627517    0.9175559305
H        1.0710768868    0.3454485846    0.0004653019
H       -0.5071877590    0.4495029045   -0.9164950601
6    
Iteration 91 Energy -127.12260548
O        0.0617977540   -1.4945083126    0.0003731707
H       -1.0172608020   -1.6895591424    0.0001237428
C       -0.0011973879    0.0024390642    0.0005840782
H       -0.5071386161    0.4497087461    0.9176098670
H        1.0711338718    0.3454795342    0.0004656224
H       -0.5072186178    0.4495487356   -0.9165482836
6    
Iteration 92 Energy -127.12260557
O        0.0619180384   -1.4946021562    0.0003733858
H       -1.0173811014   -1.6896017048    0.0001238480
C       -0.0011912149    0.0024534697    0.0005845233
H       -0.5071693906    0.4497547418    0.9176638039
H        1.0711908566    0.3455104810    0.0004659430
H       -0.5072494775    0.4495945680   -0.9166015075
6    
Iteration 93 Energy -127.12260562
O        0.0620383270   -1.4946960006    0.0003736009
H       -1.0175013996   -1.6896442654    0.0001239532
C       -0.0011850449    0.0024678741    0.0005849684
H       -0.5072001661    0.4498007390    0.9177177410
H        1.0712478412    0.3455414251    0.0004662635
H       -0.5072803383    0.4496404018   -0.9166547316
6    
Iteration 94 Energy -127.12260573
O        0.0621586197   -1.4947898457    0.0003738161
H       -1.0176216965   -1.6896868242    0.0001240583
C       -0.0011788780    0.0024822775    0.0005854135
H       -0.5072309426    0.4498467376    0.9177716785
H        1.0713048256    0.3455723664    0.0004665841
H       -0.5073112000    0.4496862370   -0.9167079561
6    
Iteration 95 Energy -127.12260579
O        0.0622789165   -1.4948836915    0.0003740312
H       -1.0177419923   -1.6897293812    0.0001241635
C       -0.0011727141    0.0024966798    0.0005858586
H       -0.5072617201    0.4498927376    0.9178256163
H        1.0713618098    0.3456033050    0.0004669046
H       -0.5073420627    0.4497320737   -0.9167611808
6    
Iteration 96 Energy -127.12260590
O        0.0623992175   -1.4949775381    0.0003742464
H       -1.0178622868   -1.6897719364    0.0001242688
C       -0.0011665532    0.0025110812    0.0005863037
H       -0.5072924986    0.4499387391    0.9178795544
H        1.0714187939    0.3456342408    0.0004672251
H       -0.5073729264    0.4497779117   -0.9168144059
6    
Iteration 97 Energy -127.12260597
O        0.0625195227   -1.4950713855    0.0003744616
H       -1.0179825801   -1.6898144899    0.0001243740
C       -0.0011603955    0.0025254814    0.0005867488
H       -0.5073232781    0.4499847419    0.9179334928
H        1.0714757778    0.3456651739    0.0004675456
H       -0.5074037911    0.4498237511   -0.9168676312
6    
Iteration 98 Energy -127.12260598
O        0.0626398320   -1.4951652335    0.0003746768
H       -1.0181028722   -1.6898570416    0.0001244792
C       -0.0011542407    0.0025398807    0.0005871940
H       -0.5073540586    0.4500307462    0.9179874315
H        1.0715327614    0.3456961043    0.0004678660
H       -0.5074346567    0.4498695920   -0.9169208569
6    
Iteration 99 Energy -127.12260609
O        0.0627601455   -1.4952590824    0.0003748920
H       -1.0182231631   -1.6898995915    0.0001245845
C       -0.0011480890    0.0025542789    0.0005876391
H       -0.5073848401    0.4500767519    0.9180413705
H        1.0715897449    0.3457270319    0.0004681865
H       -0.5074655235    0.4499154342   -0.9169740829
6    
Iteration 100 Energy -127.12260617
O        0.0628804632   -1.4953529319    0.0003751072
H       -1.0183434528   -1.6899421396    0.0001246897
C       -0.0011419404    0.0025686760    0.0005880843
H       -0.5074156226    0.4501227590    0.9180953098
H        1.0716467282    0.3457579567    0.0004685069
H       -0.5074963912    0.4499612778   -0.9170273092
6    
Iteration 101 Energy -127.12260623
O        0.0630007850   -1.4954467823    0.0003753225
H       -1.0184637414   -1.6899846860    0.0001247950
C       -0.0011357948    0.0025830721    0.0005885294
H       -0.5074464060    0.4501687676    0.9181492495
H        1.0717037114    0.3457888788    0.0004688274
H       -0.5075272600    0.4500071229   -0.9170805359
6    
Iteration 102 Energy -127.12260629
O        0.0631211109   -1.4955406333    0.0003755378
H       -1.0185840287   -1.6900272306    0.0001249003
C       -0.0011296522    0.0025974672    0.0005889746
H       -0.5074771905    0.4502147776    0.9182031894
H        1.0717606943    0.3458197982    0.0004691478
H       -0.5075581297    0.4500529694   -0.9171337628
6    
Iteration 103 Energy -127.12260639
O        0.0632414410   -1.4956344851    0.0003757530
H       -1.0187043148   -1.6900697735    0.0001250056
C       -0.0011235127    0.0026118613    0.0005894197
H       -0.5075079760    0.4502607890    0.9182571297
H        1.0718176771    0.3458507148    0.0004694682
H       -0.5075890004    0.4500988172   -0.9171869901
6    
Iteration 104 Energy -127.12260645
O        0.0633617753   -1.4957283377    0.0003759683
H       -1.0188245997   -1.6901123146    0.0001251109
C       -0.0011173762    0.0026262543    0.0005898649
H       -0.5075387624    0.4503068018    0.9183110703
H        1.0718746598    0.3458816287    0.0004697886
H       -0.5076198721    0.4501446665   -0.9172402177
6    
Iteration 105 Energy -127.12260607
O        0.0634821138   -1.4958221910    0.0003761836
H       -1.0189448835   -1.6901548539    0.0001252162
C       -0.0011112428    0.0026406462    0.0005903101
H       -0.5075695499    0.4503528161    0.9183650112
H        1.0719316422    0.3459125399    0.0004701089
H       -0.5076507448    0.4501905172   -0.9172934456
6    
Iteration 106 Energy -127.12260616
O        0.0636024564   -1.4959160451    0.0003763990
H       -1.0190651661   -1.6901973915    0.0001253216
C       -0.0011051124    0.0026550372    0.0005907553
H       -0.5076003384    0.4503988317    0.9184189525
H        1.0719886245    0.3459434483    0.0004704293
H       -0.5076816185    0.4502363693   -0.9173466738
6    
Iteration 107 Energy -127.12260625
O        0.0637228032   -1.4960098999    0.0003766143
H       -1.0191854475   -1.6902399273    0.0001254269
C       -0.0010989850    0.0026694271    0.0005912005
H       -0.5076311278    0.4504448489    0.9184728940
H        1.0720456066    0.3459743539    0.0004707496
H       -0.5077124931    0.4502822228   -0.9173999024
6    
Iteration 108 Energy -127.12260631
O        0.0638431542   -1.4961037555    0.0003768297
H       -1.0193057277   -1.6902824614    0.0001255323
C       -0.0010928607    0.0026838159    0.0005916457
H       -0.5076619183    0.4504908674    0.9185268359
H        1.0721025886    0.3460052568    0.0004710700
H       -0.5077433688    0.4503280778   -0.9174531313
6    
Iteration 109 Energy -127.12260641
O        0.0639635094   -1.4961976119    0.0003770451
H       -1.0194260067   -1.6903249938    0.0001256377
C       -0.0010867394    0.0026982037    0.0005920909
H       -0.5076927097    0.4505368874    0.9185807782
H        1.0721595704    0.3460361570    0.0004713903
H       -0.5077742454    0.4503739341   -0.9175063604
6    
Iteration 110 Energy -127.12260648
O        0.0640838687   -1.4962914689    0.0003772605
H       -1.0195462846   -1.6903675244    0.0001257430
C       -0.0010806211    0.0027125905    0.0005925361
H       -0.5077235022    0.4505829089    0.9186347207
H        1.0722165520    0.3460670545    0.0004717106
H       -0.5078051231    0.4504197919   -0.9175595900
6    
Iteration 111 Energy -127.12260655
O        0.0642042322   -1.4963853268    0.0003774759
H       -1.0196665613   -1.6904100532    0.0001258484
C       -0.0010745059    0.0027269763    0.0005929813
H       -0.5077542956    0.4506289317    0.9186886636
H        1.0722735335    0.3460979492    0.0004720309
H       -0.5078360017    0.4504656511   -0.9176128198
6    
Iteration 112 Energy -127.12260666
O        0.0643245999   -1.4964791854    0.0003776913
H       -1.0197868369   -1.6904525804    0.0001259539
C       -0.0010683937    0.0027413610    0.0005934266
H       -0.5077850901    0.4506749560    0.9187426068
H        1.0723305149    0.3461288412    0.0004723512
H       -0.5078668813    0.4505115117   -0.9176660500
6    
Iteration 113 Energy -127.12260673
O        0.0644449717   -1.4965730447    0.0003779068
H       -1.0199071113   -1.6904951058    0.0001260593
C       -0.0010622845    0.0027557447    0.0005938718
H       -0.5078158855    0.4507209818    0.9187965503
H        1.0723874960    0.3461597304    0.0004726715
H       -0.5078977620    0.4505573737   -0.9177192804
6    
Iteration 114 Energy -127.12260638
O        0.0645653477   -1.4966669049    0.0003781222
H       -1.0200273845   -1.6905376294    0.0001261647
C       -0.0010561784    0.0027701274    0.0005943171
H       -0.5078466820    0.4507670089    0.9188504941
H        1.0724444770    0.3461906169    0.0004729918
H       -0.5079286436    0.4506032372   -0.9177725113
6    
Iteration 115 Energy -127.12260646
O        0.0646857279   -1.4967607657    0.0003783377
H       -1.0201476566   -1.6905801514    0.0001262702
C       -0.0010500753    0.0027845090    0.0005947623
H       -0.5078774794    0.4508130375    0.9189044383
H        1.0725014579    0.3462215007    0.0004733120
H       -0.5079595262    0.4506491021   -0.9178257424
6    
Iteration 116 Energy -127.12260650
O        0.0648061123   -1.4968546274    0.0003785532
H       -1.0202679276   -1.6906226716    0.0001263756
C       -0.0010439752    0.0027988897    0.0005952076
H       -0.5079082779    0.4508590676    0.9189583828
H        1.0725584386    0.3462523817    0.0004736323
H       -0.5079904098    0.4506949684   -0.9178789739
6    
Iteration 117 Energy -127.12260658
O        0.0649265009   -1.4969484898    0.0003787687
H       -1.0203881974   -1.6906651901    0.0001264811
C       -0.0010378782    0.0028132692    0.0005956529
H       -0.5079390773    0.4509050991    0.9190123277
H        1.0726154192    0.3462832600    0.0004739525
H       -0.5080212944    0.4507408361   -0.9179322057
6    
Iteration 118 Energy -127.12260665
O        0.0650468937   -1.4970423529    0.0003789843
H       -1.0205084660   -1.6907077069    0.0001265866
C       -0.0010317841    0.0028276478    0.0005960982
H       -0.5079698778    0.4509511320    0.9190662729
H        1.0726723996    0.3463141356    0.0004742727
H       -0.5080521799    0.4507867052   -0.9179854379
6    
Iteration 119 Energy -127.12260671
O        0.0651672906   -1.4971362168    0.0003791998
H       -1.0206287335   -1.6907502219    0.0001266920
C       -0.0010256931    0.0028420253    0.0005965435
H       -0.5080006792    0.4509971664    0.9191202184
H        1.0727293798    0.3463450085    0.0004745929
H       -0.5080830665    0.4508325758   -0.9180386703
6    
Iteration 120 Energy -127.12260674
O        0.0652876918   -1.4972300815    0.0003794154
H       -1.0207489999   -1.6907927353    0.0001267976
C       -0.0010196052    0.0028564018    0.0005969888
H       -0.5080314817    0.4510432023    0.9191741643
H        1.0727863600    0.3463758786    0.0004749131
H       -0.5081139541    0.4508784478   -0.9180919031
6    
Iteration 121 Energy -127.12260688
O        0.0654080971   -1.4973239469    0.0003796310
H       -1.0208692652   -1.6908352469    0.0001269031
C       -0.0010135202    0.0028707773    0.0005974341
H       -0.5080622851    0.4510892395    0.9192281105
H        1.0728433400    0.3464067460    0.0004752333
H       -0.5081448427    0.4509243212   -0.9181451363
6    
Iteration 122 Energy -127.12260698
O        0.0655285066   -1.4974178131    0.0003798466
H       -1.0209895293   -1.6908777568    0.0001270086
C       -0.0010074383    0.0028851517    0.0005978794
H       -0.5080930896    0.4511352783    0.9192820570
H        1.0729003198    0.3464376107    0.0004755535
H       -0.5081757322    0.4509701961   -0.9181983698
6    
Iteration 123 Energy -127.12260704
O        0.0656489203   -1.4975116801    0.0003800622
H       -1.0211097923   -1.6909202650    0.0001271141
C       -0.0010013594    0.0028995251    0.0005983247
H       -0.5081238951    0.4511813184    0.9193360039
H        1.0729572995    0.3464684726    0.0004758736
H       -0.5082066228    0.4510160723   -0.9182516036
6    
Iteration 124 Energy -127.12260710
O        0.0657693382   -1.4976055478    0.0003802778
H       -1.0212300542   -1.6909627715    0.0001272197
C       -0.0009952835    0.0029138975    0.0005987700
H       -0.5081547015    0.4512273601    0.9193899511
H        1.0730142790    0.3464993318    0.0004761938
H       -0.5082375143    0.4510619501   -0.9183048378
6    
Iteration 125 Energy -127.12260718
O        0.0658897603   -1.4976994163    0.0003804935
H       -1.0213503149   -1.6910052763    0.0001273252
C       -0.0009892106    0.0029282689    0.0005992154
H       -0.5081855090    0.4512734031    0.9194438987
H        1.0730712585    0.3465301883    0.0004765139
H       -0.5082684069    0.4511078292   -0.9183580723
6    
Iteration 126 Energy -127.12260722
O        0.0660101866   -1.4977932856    0.0003807092
H       -1.0214705746   -1.6910477794    0.0001274308
C       -0.0009831408    0.0029426392    0.0005996607
H       -0.5082163174    0.4513194476    0.9194978466
H        1.0731282378    0.3465610421    0.0004768340
H       -0.5082993004    0.4511537098   -0.9184113071
6    
Iteration 127 Energy -127.12260729
O        0.0661306170   -1.4978871556    0.0003809249
H       -1.0215908331   -1.6910902809    0.0001275364
C       -0.0009770740    0.0029570086    0.0006001061
H       -0.5082471269    0.4513654936    0.9195517948
H        1.0731852169    0.3465918931    0.0004771541
H       -0.5083301949    0.4511995918   -0.9184645423
6    
Iteration 128 Energy -127.12260735
O        0.0662510517   -1.4979810264    0.0003811406
H       -1.0217110905   -1.6911327806    0.0001276420
C       -0.0009710101    0.0029713769    0.0006005514
H       -0.5082779374    0.4514115410    0.9196057434
H        1.0732421959    0.3466227414    0.0004774742
H       -0.5083610905    0.4512454752   -0.9185177779
6    
Iteration 129 Energy -127.12260744
O        0.0663714906   -1.4980748979    0.0003813563
H       -1.0218313468   -1.6911752786    0.0001277476
C       -0.0009649493    0.0029857441    0.0006009968
H       -0.5083087488    0.4514575899    0.9196596924
H        1.0732991748    0.3466535870    0.0004777943
H       -0.5083919870    0.4512913601   -0.9185710137
6    
Iteration 130 Energy -127.12260751
O        0.0664919336   -1.4981687702    0.0003815720
H       -1.0219516020   -1.6912177750    0.0001278532
C       -0.0009588916    0.0030001104    0.0006014422
H       -0.5083395613    0.4515036402    0.9197136417
H        1.0733561536    0.3466844299    0.0004781144
H       -0.5084228845    0.4513372465   -0.9186242500
6    
Iteration 131 Energy -127.12260759
O        0.0666123809   -1.4982626433    0.0003817878
H       -1.0220718561   -1.6912602696    0.0001279589
C       -0.0009528368    0.0030144756    0.0006018876
H       -0.5083703748    0.4515496920    0.9197675913
H        1.0734131322    0.3467152701    0.0004784345
H       -0.5084537830    0.4513831342   -0.9186774865
6    
Iteration 132 Energy -127.12260771
O        0.0667328324   -1.4983565172    0.0003820036
H       -1.0221921091   -1.6913027626    0.0001280645
C       -0.0009467851    0.0030288398    0.0006023330
H       -0.5084011893    0.4515957453    0.9198215413
H        1.0734701107    0.3467461075    0.0004787545
H       -0.5084846825    0.4514290234   -0.9187307235
6    
Iteration 133 Energy -127.12260779
O        0.0668532881   -1.4984503918    0.0003822194
H       -1.0223123610   -1.6913452539    0.0001281702
C       -0.0009407363    0.0030432030    0.0006027784
H       -0.5084320048    0.4516418000    0.9198754917
H        1.0735270891    0.3467769422    0.0004790745
H       -0.5085155830    0.4514749140   -0.9187839607
6    
Iteration 134 Energy -127.12260785
O        0.0669737479   -1.4985442672    0.0003824352
H       -1.0224326118   -1.6913877435    0.0001282759
C       -0.0009346906    0.0030575652    0.0006032238
H       -0.5084628213    0.4516878561    0.9199294424
H        1.0735840674    0.3468077743    0.0004793946
H       -0.5085464846    0.4515208061   -0.9188371983
6    
Iteration 135 Energy -127.12260792
O        0.0670942120   -1.4986381434    0.0003826510
H       -1.0225528615   -1.6914302315    0.0001283815
C       -0.0009286479    0.0030719264    0.0006036692
H       -0.5084936388    0.4517339138    0.9199833935
H        1.0736410455    0.3468386035    0.0004797146
H       -0.5085773871    0.4515666996   -0.9188904363
6    
Iteration 136 Energy -127.12260802
O        0.0672146803   -1.4987320203    0.0003828668
H       -1.0226731102   -1.6914727178    0.0001284872
C       -0.0009226082    0.0030862865    0.0006041146
H       -0.5085244573    0.4517799728    0.9200373449
H        1.0736980235    0.3468694301    0.0004800346
H       -0.5086082906    0.4516125946   -0.9189436746
6    
Iteration 137 Energy -127.12260813
O        0.0673351528   -1.4988258980    0.0003830827
H       -1.0227933577   -1.6915152024    0.0001285929
C       -0.0009165715    0.0031006456    0.0006045601
H       -0.5085552768    0.4518260334    0.9200912966
H        1.0737550014    0.3469002540    0.0004803546
H       -0.5086391951    0.4516584910   -0.9189969133
6    
Iteration 138 Energy -127.12260821
O        0.0674556295   -1.4989197765    0.0003832986
H       -1.0229136042   -1.6915576853    0.0001286987
C       -0.0009105378    0.0031150037    0.0006050055
H       -0.5085860973    0.4518720954    0.9201452488
H        1.0738119792    0.3469310751    0.0004806746
H       -0.5086701006    0.4517043889   -0.9190501524
6    
Iteration 139 Energy -127.12260827
O        0.0675761104   -1.4990136557    0.0003835145
H       -1.0230338496   -1.6916001666    0.0001288044
C       -0.0009045071    0.0031293608    0.0006054510
H       -0.5086169188    0.4519181589    0.9201992013
H        1.0738689569    0.3469618935    0.0004809945
H       -0.5087010071    0.4517502882   -0.9191033917
6    
Iteration 140 Energy -127.12260836
O        0.0676965956   -1.4991075358    0.0003837304
H       -1.0231540939   -1.6916426462    0.0001289101
C       -0.0008984794    0.0031437169    0.0006058964
H       -0.5086477413    0.4519642238    0.9202531541
H        1.0739259344    0.3469927093    0.0004813145
H       -0.5087319146    0.4517961889   -0.9191566315
6    
Iteration 141 Energy -127.12260842
O        0.0678170849   -1.4992014166    0.0003839463
H       -1.0232743372   -1.6916851242    0.0001290159
C       -0.0008924548    0.0031580720    0.0006063419
H       -0.5086785648    0.4520102902    0.9203071073
H        1.0739829118    0.3470235223    0.0004816344
H       -0.5087628231    0.4518420911   -0.9192098716
6    
Iteration 142 Energy -127.12260852
O        0.0679375785   -1.4992952981    0.0003841623
H       -1.0233945794   -1.6917276005    0.0001291216
C       -0.0008864331    0.0031724260    0.0006067874
H       -0.5087093894    0.4520563580    0.9203610609
H        1.0740398892    0.3470543325    0.0004819543
H       -0.5087937326    0.4518879947   -0.9192631121
6    
Iteration 143 Energy -127.12260858
O        0.0680580762   -1.4993891805    0.0003843783
H       -1.0235148205   -1.6917700752    0.0001292274
C       -0.0008804144    0.0031867790    0.0006072328
H       -0.5087402149    0.4521024274    0.9204150148
H        1.0740968664    0.3470851401    0.0004822742
H       -0.5088246431    0.4519338998   -0.9193163529
6    
Iteration 144 Energy -127.12260863
O        0.0681785782   -1.4994830636    0.0003845942
H       -1.0236350606   -1.6918125482    0.0001293332
C       -0.0008743988    0.0032011310    0.0006076783
H       -0.5087710415    0.4521484982    0.9204689691
H        1.0741538435    0.3471159450    0.0004825942
H       -0.5088555546    0.4519798063   -0.9193695941
6    
Iteration 145 Energy -127.12260903
O        0.0682990844   -1.4995769475    0.0003848102
H       -1.0237552996   -1.6918550195    0.0001294390
C       -0.0008683861    0.0032154821    0.0006081238
H       -0.5088018690    0.4521945704    0.9205229238
H        1.0742108205    0.3471467472    0.0004829140
H       -0.5088864671    0.4520257143   -0.9194228356
6    
Iteration 146 Energy -127.12260911
O        0.0684195951   -1.4996708321    0.0003850266
H       -1.0238755374   -1.6918974892    0.0001295450
C       -0.0008623764    0.0032298321    0.0006085694
H       -0.5088326976    0.4522406442    0.9205768788
H        1.0742677974    0.3471775467    0.0004832340
H       -0.5089173805    0.4520716237   -0.9194760776
6    
Iteration 147 Energy -127.12260919
O        0.0685401101   -1.4997647174    0.0003852431
H       -1.0239957741   -1.6919399573    0.0001296510
C       -0.0008563697    0.0032441811    0.0006090150
H       -0.5088635272    0.4522867195    0.9206308342
H        1.0743247742    0.3472083435    0.0004835539
H       -0.5089482950    0.4521175346   -0.9195293199
6    
Iteration 148 Energy -127.12260926
O        0.0686606292   -1.4998586035    0.0003854595
H       -1.0241160098   -1.6919824237    0.0001297570
C       -0.0008503661    0.0032585291    0.0006094605
H       -0.5088943579    0.4523327962    0.9206847899
H        1.0743817509    0.3472391376    0.0004838738
H       -0.5089792104    0.4521634469   -0.9195825625
6    
Iteration 149 Energy -127.12260936
O        0.0687811526   -1.4999524903    0.0003856760
H       -1.0242362445   -1.6920248885    0.0001298630
C       -0.0008443654    0.0032728761    0.0006099061
H       -0.5089251895    0.4523788744    0.9207387460
H        1.0744387275    0.3472699290    0.0004841937
H       -0.5090101269    0.4522093606   -0.9196358056
6    
Iteration 150 Energy -127.12260941
O        0.0689016802   -1.5000463780    0.0003858924
H       -1.0243564781   -1.6920673516    0.0001299690
C       -0.0008383677    0.0032872221    0.0006103517
H       -0.5089560222    0.4524249540    0.9207927025
H        1.0744957040    0.3473007177    0.0004845136
H       -0.5090410443    0.4522552759   -0.9196890490
6    
Iteration 151 Energy -127.12260950
O        0.0690222121   -1.5001402664    0.0003861089
H       -1.0244767107   -1.6921098132    0.0001300750
C       -0.0008323730    0.0033015671    0.0006107973
H       -0.5089868558    0.4524710352    0.9208466594
H        1.0745526804    0.3473315036    0.0004848335
H       -0.5090719628    0.4523011925   -0.9197422928
6    
Iteration 152 Energy -127.12260958
O        0.0691427481   -1.5002341556    0.0003863254
H       -1.0245969422   -1.6921522731    0.0001301810
C       -0.0008263813    0.0033159111    0.0006112429
H       -0.5090176905    0.4525171178    0.9209006166
H        1.0746096567    0.3473622869    0.0004851534
H       -0.5091028822    0.4523471107   -0.9197955369
6    
Iteration 153 Energy -127.12260968
O        0.0692632884   -1.5003280456    0.0003865420
H       -1.0247171727   -1.6921947313    0.0001302871
C       -0.0008203925    0.0033302541    0.0006116886
H       -0.5090485261    0.4525632019    0.9209545742
H        1.0746666330    0.3473930675    0.0004854732
H       -0.5091338027    0.4523930302   -0.9198487814
6    
Iteration 154 Energy -127.12260977
O        0.0693838329   -1.5004219364    0.0003867585
H       -1.0248374022   -1.6922371880    0.0001303931
C       -0.0008144068    0.0033445960    0.0006121342
H       -0.5090793628    0.4526092875    0.9210085322
H        1.0747236091    0.3474238454    0.0004857930
H       -0.5091647241    0.4524389513   -0.9199020263
6    
Iteration 155 Energy -127.12260982
O        0.0695043816   -1.5005158279    0.0003869751
H       -1.0249576306   -1.6922796430    0.0001304992
C       -0.0008084241    0.0033589370    0.0006125798
H       -0.5091102005    0.4526553745    0.9210624906
H        1.0747805851    0.3474546205    0.0004861129
H       -0.5091956466    0.4524848738   -0.9199552716
6    
Iteration 156 Energy -127.12260987
O        0.0696249346   -1.5006097202    0.0003871917
H       -1.0250778580   -1.6923220964    0.0001306053
C       -0.0008024444    0.0033732769    0.0006130255
H       -0.5091410392    0.4527014630    0.9211164493
H        1.0748375610    0.3474853930    0.0004864327
H       -0.5092265701    0.4525307978   -0.9200085172
6    
Iteration 157 Energy -127.12260995
O        0.0697454918   -1.5007036134    0.0003874083
H       -1.0251980844   -1.6923645482    0.0001307114
C       -0.0007964676    0.0033876159    0.0006134711
H       -0.5091718789    0.4527475531    0.9211704084
H        1.0748945369    0.3475161628    0.0004867525
H       -0.5092574945    0.4525767232   -0.9200617632
6    
Iteration 158 Energy -127.12261000
O        0.0698660532   -1.5007975073    0.0003876249
H       -1.0253183098   -1.6924069983    0.0001308175
C       -0.0007904939    0.0034019538    0.0006139168
H       -0.5092027196    0.4527936445    0.9212243679
H        1.0749515127    0.3475469299    0.0004870723
H       -0.5092884200    0.4526226501   -0.9201150096
6    
Iteration 159 Energy -127.12261008
O        0.0699866189   -1.5008914019    0.0003878415
H       -1.0254385342   -1.6924494469    0.0001309236
C       -0.0007845231    0.0034162908    0.0006143624
H       -0.5092335613    0.4528397375    0.9212783278
H        1.0750084883    0.3475776942    0.0004873921
H       -0.5093193465    0.4526685785   -0.9201682564
6    
Iteration 160 Energy -127.12261019
O        0.0701071888   -1.5009852974    0.0003880582
H       -1.0255587575   -1.6924918939    0.0001310298
C       -0.0007785554    0.0034306267    0.0006148081
H       -0.5092644041    0.4528858320    0.9213322880
H        1.0750654639    0.3476084559    0.0004877118
H       -0.5093502739    0.4527145083   -0.9202215035
6    
Iteration 161 Energy -127.12261032
O        0.0702277629   -1.5010791936    0.0003882748
H       -1.0256789799   -1.6925343392    0.0001311359
C       -0.0007725906    0.0034449616    0.0006152538
H       -0.5092952478    0.4529319279    0.9213862487
H        1.0751224394    0.3476392149    0.0004880316
H       -0.5093812024    0.4527604396   -0.9202747510
6    
Iteration 162 Energy -127.12261040
O        0.0703483413   -1.5011730907    0.0003884915
H       -1.0257992012   -1.6925767829    0.0001312421
C       -0.0007666288    0.0034592955    0.0006156995
H       -0.5093260926    0.4529780253    0.9214402097
H        1.0751794149    0.3476699712    0.0004883513
H       -0.5094121319    0.4528063723   -0.9203279989
6    
Iteration 163 Energy -127.12261049
O        0.0704689239   -1.5012669885    0.0003887082
H       -1.0259194215   -1.6926192251    0.0001313482
C       -0.0007606700    0.0034736285    0.0006161452
H       -0.5093569383    0.4530241242    0.9214941711
H        1.0752363902    0.3477007248    0.0004886711
H       -0.5094430624    0.4528523065   -0.9203812472
6    
Iteration 164 Energy -127.12261055
O        0.0705895107   -1.5013608871    0.0003889250
H       -1.0260396408   -1.6926616656    0.0001314544
C       -0.0007547142    0.0034879604    0.0006165909
H       -0.5093877851    0.4530702246    0.9215481329
H        1.0752933655    0.3477314757    0.0004889908
H       -0.5094739939    0.4528982422   -0.9204344959
6    
Iteration 165 Energy -127.12261062
O        0.0707101018   -1.5014547865    0.0003891417
H       -1.0261598592   -1.6927041046    0.0001315606
C       -0.0007487613    0.0035022913    0.0006170366
H       -0.5094186329    0.4531163265    0.9216020950
H        1.0753503407    0.3477622239    0.0004893105
H       -0.5095049263    0.4529441794   -0.9204877449
6    
Iteration 166 Energy -127.12261068
O        0.0708306971   -1.5015486867    0.0003893585
H       -1.0262800765   -1.6927465419    0.0001316668
C       -0.0007428115    0.0035166212    0.0006174824
H       -0.5094494817    0.4531624299    0.9216560576
H        1.0754073158    0.3477929694    0.0004896302
H       -0.5095358598    0.4529901180   -0.9205409944
6    
Iteration 167 Energy -127.12261079
O        0.0709512967   -1.5016425876    0.0003895752
H       -1.0264002929   -1.6927889777    0.0001317730
C       -0.0007368646    0.0035309501    0.0006179281
H       -0.5094803315    0.4532085347    0.9217100206
H        1.0754642908    0.3478237122    0.0004899499
H       -0.5095667943    0.4530360581   -0.9205942442
6    
Iteration 168 Energy -127.12261086
O        0.0710719005   -1.5017364894    0.0003897920
H       -1.0265205082   -1.6928314119    0.0001318792
C       -0.0007309207    0.0035452780    0.0006183738
H       -0.5095111823    0.4532546411    0.9217639839
H        1.0755212658    0.3478544523    0.0004902695
H       -0.5095977298    0.4530819997   -0.9206474944
6    
Iteration 169 Energy -127.12261092
O        0.0711925085   -1.5018303919    0.0003900088
H       -1.0266407226   -1.6928738445    0.0001319855
C       -0.0007249798    0.0035596049    0.0006188196
H       -0.5095420342    0.4533007489    0.9218179476
H        1.0755782407    0.3478851898    0.0004905892
H       -0.5096286664    0.4531279428   -0.9207007450
6    
Iteration 170 Energy -127.12261101
O        0.0713131208   -1.5019242953    0.0003902257
H       -1.0267609360   -1.6929162755    0.0001320917
C       -0.0007190419    0.0035739309    0.0006192653
H       -0.5095728870    0.4533468582    0.9218719118
H        1.0756352155    0.3479159245    0.0004909089
H       -0.5096596039    0.4531738873   -0.9207539960
6    
Iteration 171 Energy -127.12261103
O        0.0714337374   -1.5020181994    0.0003904425
H       -1.0268811484   -1.6929587049    0.0001321980
C       -0.0007131069    0.0035882558    0.0006197111
H       -0.5096037409    0.4533929691    0.9219258763
H        1.0756921902    0.3479466566    0.0004912285
H       -0.5096905424    0.4532198333   -0.9208072473
6    
Iteration 172 Energy -127.12261112
O        0.0715543581   -1.5021121043    0.0003906594
H       -1.0270013598   -1.6930011328    0.0001323043
C       -0.0007071750    0.0036025797    0.0006201569
H       -0.5096345958    0.4534390814    0.9219798412
H        1.0757491649    0.3479773859    0.0004915481
H       -0.5097214819    0.4532657807   -0.9208604991
6    
Iteration 173 Energy -127.12261120
O        0.0716749832   -1.5022060100    0.0003908763
H       -1.0271215702   -1.6930435590    0.0001324106
C       -0.0007012460    0.0036169026    0.0006206027
H       -0.5096654516    0.4534851952    0.9220338065
H        1.0758061396    0.3480081126    0.0004918677
H       -0.5097524224    0.4533117297   -0.9209137512
6    
Iteration 174 Energy -127.12261125
O        0.0717956125   -1.5022999165    0.0003910932
H       -1.0272417797   -1.6930859837    0.0001325169
C       -0.0006953200    0.0036312246    0.0006210485
H       -0.5096963085    0.4535313105    0.9220877722
H        1.0758631141    0.3480388366    0.0004921873
H       -0.5097833640    0.4533576801   -0.9209670038
6    
Iteration 175 Energy -127.12261133
O        0.0719162460   -1.5023938238    0.0003913101
H       -1.0273619882   -1.6931284069    0.0001326232
C       -0.0006893969    0.0036455455    0.0006214943
H       -0.5097271664    0.4535774273    0.9221417383
H        1.0759200886    0.3480695579    0.0004925069
H       -0.5098143065    0.4534036320   -0.9210202567
6    
Iteration 176 Energy -127.12261142
O        0.0720368838   -1.5024877318    0.0003915270
H       -1.0274821958   -1.6931708284    0.0001327295
C       -0.0006834769    0.0036598654    0.0006219401
H       -0.5097580254    0.4536235456    0.9221957048
H        1.0759770630    0.3481002765    0.0004928265
H       -0.5098452501    0.4534495854   -0.9210735101
6    
Iteration 177 Energy -127.12261153
O        0.0721575258   -1.5025816407    0.0003917440
H       -1.0276024023   -1.6932132484    0.0001328358
C       -0.0006775598    0.0036741844    0.0006223859
H       -0.5097888853    0.4536696654    0.9222496717
H        1.0760340374    0.3481309924    0.0004931460
H       -0.5098761946    0.4534955403   -0.9211267638
6    
Iteration 178 Energy -127.12261158
O        0.0722781721   -1.5026755504    0.0003919610
H       -1.0277226079   -1.6932556669    0.0001329422
C       -0.0006716457    0.0036885023    0.0006228317
H       -0.5098197463    0.4537157867    0.9223036390
H        1.0760910117    0.3481617057    0.0004934656
H       -0.5099071402    0.4535414966   -0.9211800179
6    
Iteration 179 Energy -127.12261166
O        0.0723988226   -1.5027694608    0.0003921780
H       -1.0278428126   -1.6932980838    0.0001330485
C       -0.0006657345    0.0037028193    0.0006232776
H       -0.5098506082    0.4537619095    0.9223576067
H        1.0761479860    0.3481924163    0.0004937851
H       -0.5099380868    0.4535874544   -0.9212332724
6    
Iteration 180 Energy -127.12261177
O        0.0725194774   -1.5028633721    0.0003923950
H       -1.0279630163   -1.6933404991    0.0001331549
C       -0.0006598263    0.0037171352    0.0006237234
H       -0.5098814712    0.4538080338    0.9224115747
H        1.0762049602    0.3482231242    0.0004941047
H       -0.5099690343    0.4536334138   -0.9212865274
6    
Iteration 181 Energy -127.12261184
O        0.0726401365   -1.5029572841    0.0003926120
H       -1.0280832191   -1.6933829128    0.0001332613
C       -0.0006539211    0.0037314502    0.0006241693
H       -0.5099123352    0.4538541596    0.9224655432
H        1.0762619343    0.3482538294    0.0004944242
H       -0.5099999829    0.4536793746   -0.9213397827
6    
Iteration 182 Energy -127.12261189
O        0.0727607998   -1.5030511969    0.0003928290
H       -1.0282034209   -1.6934253251    0.0001333677
C       -0.0006480189    0.0037457642    0.0006246151
H       -0.5099432002    0.4539002869    0.9225195121
H        1.0763189084    0.3482845319    0.0004947437
H       -0.5100309325    0.4537253368   -0.9213930384
6    
Iteration 183 Energy -127.12261203
O        0.0728814673   -1.5031451106    0.0003930461
H       -1.0283236217   -1.6934677357    0.0001334741
C       -0.0006421197    0.0037600772    0.0006250610
H       -0.5099740662    0.4539464157    0.9225734814
H        1.0763758824    0.3483152317    0.0004950632
H       -0.5100618831    0.4537713006   -0.9214462945
6    
Iteration 184 Energy -127.12261210
O        0.0730021392   -1.5032390250    0.0003932632
H       -1.0284438216   -1.6935101448    0.0001335805
C       -0.0006362234    0.0037743892    0.0006255069
H       -0.5100049332    0.4539925460    0.9226274512
H        1.0764328564    0.3483459289    0.0004953827
H       -0.5100928347    0.4538172658   -0.9214995511
6    
Iteration 185 Energy -127.12261217
O        0.0731228152   -1.5033329402    0.0003934803
H       -1.0285640206   -1.6935525524    0.0001336869
C       -0.0006303300    0.0037887002    0.0006259528
H       -0.5100358013    0.4540386778    0.9226814213
H        1.0764898303    0.3483766234    0.0004957021
H       -0.5101237873    0.4538632326   -0.9215528080
6    
Iteration 186 Energy -127.12261219
O        0.0732434956   -1.5034268562    0.0003936974
H       -1.0286842187   -1.6935949584    0.0001337934
C       -0.0006244397    0.0038030102    0.0006263986
H       -0.5100666704    0.4540848111    0.9227353918
H        1.0765468042    0.3484073152    0.0004960216
H       -0.5101547410    0.4539092008   -0.9216060653
6    
Iteration 187 Energy -127.12261227
O        0.0733641802   -1.5035207730    0.0003939146
H       -1.0288044158   -1.6936373629    0.0001338998
C       -0.0006185523    0.0038173192    0.0006268446
H       -0.5100975404    0.4541309459    0.9227893627
H        1.0766037781    0.3484380043    0.0004963410
H       -0.5101856956    0.4539551705   -0.9216593231
6    
Iteration 188 Energy -127.12261236
O        0.0734848691   -1.5036146906    0.0003941317
H       -1.0289246119   -1.6936797659    0.0001340063
C       -0.0006126678    0.0038316272    0.0006272905
H       -0.5101284115    0.4541770823    0.9228433341
H        1.0766607519    0.3484686907    0.0004966605
H       -0.5102166512    0.4540011417   -0.9217125812
6    
Iteration 189 Energy -127.12261246
O        0.0736055622   -1.5037086091    0.0003943489
H       -1.0290448072   -1.6937221673    0.0001341128
C       -0.0006067864    0.0038459343    0.0006277364
H       -0.5101592836    0.4542232201    0.9228973058
H        1.0767177256    0.3484993745    0.0004969799
H       -0.5102476079    0.4540471144   -0.9217658398
6    
Iteration 190 Energy -127.12261249
O        0.0737262596   -1.5038025283    0.0003945661
H       -1.0291650015   -1.6937645672    0.0001342193
C       -0.0006009079    0.0038602404    0.0006281823
H       -0.5101901568    0.4542693594    0.9229512780
H        1.0767746993    0.3485300556    0.0004972993
H       -0.5102785655    0.4540930886   -0.9218190987
6    
Iteration 191 Energy -127.12261257
O        0.0738469613   -1.5038964483    0.0003947833
H       -1.0292851949   -1.6938069655    0.0001343258
C       -0.0005950323    0.0038745454    0.0006286283
H       -0.5102210309    0.4543155003    0.9230052506
H        1.0768316730    0.3485607340    0.0004976187
H       -0.5103095242    0.4541390643   -0.9218723581
6    
Iteration 192 Energy -127.12261265
O        0.0739676672   -1.5039903691    0.0003950005
H       -1.0294053874   -1.6938493624    0.0001344323
C       -0.0005891598    0.0038888495    0.0006290742
H       -0.5102519061    0.4543616427    0.9230592236
H        1.0768886466    0.3485914098    0.0004979381
H       -0.5103404839    0.4541850414   -0.9219256179
6    
Iteration 193 Energy -127.12261274
O        0.0740883774   -1.5040842907    0.0003952178
H       -1.0295255789   -1.6938917577    0.0001345388
C       -0.0005832901    0.0039031526    0.0006295202
H       -0.5102827822    0.4544077866    0.9231131970
H        1.0769456202    0.3486220828    0.0004982574
H       -0.5103714445    0.4542310201   -0.9219788781
6    
Iteration 194 Energy -127.12261282
O        0.0742090919   -1.5041782131    0.0003954350
H       -1.0296457696   -1.6939341514    0.0001346454
C       -0.0005774235    0.0039174547    0.0006299661
H       -0.5103136594    0.4544539319    0.9231671708
H        1.0770025938    0.3486527533    0.0004985768
H       -0.5104024062    0.4542770003   -0.9220321387
6    
Iteration 195 Energy -127.12261287
O        0.0743298106   -1.5042721363    0.0003956523
H       -1.0297659593   -1.6939765437    0.0001347519
C       -0.0005715598    0.0039317559    0.0006304121
H       -0.5103445376    0.4545000788    0.9232211450
H        1.0770595673    0.3486834210    0.0004988961
H       -0.5104333689    0.4543229819   -0.9220853997
6    
Iteration 196 Energy -127.12261296
O        0.0744505336   -1.5043660603    0.0003958696
H       -1.0298861481   -1.6940189344    0.0001348585
C       -0.0005656990    0.0039460560    0.0006308581
H       -0.5103754169    0.4545462273    0.9232751197
H        1.0771165408    0.3487140860    0.0004992155
H       -0.5104643326    0.4543689651   -0.9221386611
6    
Iteration 197 Energy -127.12261306
O        0.0745712609   -1.5044599851    0.0003960869
H       -1.0300063360   -1.6940613237    0.0001349651
C       -0.0005598412    0.0039603552    0.0006313041
H       -0.5104062971    0.4545923772    0.9233290948
H        1.0771735142    0.3487447484    0.0004995348
H       -0.5104952974    0.4544149497   -0.9221919230
6    
Iteration 198 Energy -127.12261314
O        0.0746919924   -1.5045539107    0.0003963043
H       -1.0301265230   -1.6941037114    0.0001350716
C       -0.0005539864    0.0039746534    0.0006317501
H       -0.5104371784    0.4546385287    0.9233830703
H        1.0772304876    0.3487754081    0.0004998541
H       -0.5105262631    0.4544609358   -0.9222451853
6    
Iteration 199 Energy -127.12261320
O        0.0748127283   -1.5046478371    0.0003965216
H       -1.0302467091   -1.6941460976    0.0001351782
C       -0.0005481345    0.0039889505    0.0006321961
H       -0.5104680606    0.4546846816    0.9234370462
H        1.0772874610    0.3488060652    0.0005001734
H       -0.5105572298    0.4545069235   -0.9222984479
6    
Iteration 200 Energy -127.12261329
O        0.0749334684   -1.5047417643    0.0003967390
H       -1.0303668943   -1.6941884823    0.0001352848
C       -0.0005422856    0.0040032468    0.0006326421
H       -0.5104989439    0.4547308361    0.9234910225
H        1.0773444344    0.3488367196    0.0005004927
H       -0.5105881976    0.4545529126   -0.9223517110
6    
Iteration 201 Energy -127.12261339
O        0.0750542127   -1.5048356923    0.0003969564
H       -1.0304870786   -1.6942308655    0.0001353915
C       -0.0005364396    0.0040175420    0.0006330881
H       -0.5105298282    0.4547769921    0.9235449993
H        1.0774014077    0.3488673713    0.0005008120
H       -0.5106191664    0.4545989033   -0.9224049746
6    
Iteration 202 Energy -127.12261346
O        0.0751749614   -1.5049296211    0.0003971738
H       -1.0306072621   -1.6942732472    0.0001354981
C       -0.0005305966    0.0040318362    0.0006335341
H       -0.5105607136    0.4548231496    0.9235989765
H        1.0774583810    0.3488980203    0.0005011312
H       -0.5106501361    0.4546448954   -0.9224582385
6    
Iteration 203 Energy -127.12261353
O        0.0752957143   -1.5050235507    0.0003973913
H       -1.0307274446   -1.6943156274    0.0001356048
C       -0.0005247566    0.0040461295    0.0006339802
H       -0.5105915999    0.4548693087    0.9236529541
H        1.0775153543    0.3489286667    0.0005014505
H       -0.5106811069    0.4546908891   -0.9225115029
6    
Iteration 204 Energy -127.12261359
O        0.0754164715   -1.5051174812    0.0003976087
H       -1.0308476262   -1.6943580060    0.0001357114
C       -0.0005189195    0.0040604218    0.0006344262
H       -0.5106224873    0.4549154692    0.9237069321
H        1.0775723275    0.3489593104    0.0005017697
H       -0.5107120787    0.4547368842   -0.9225647676
6    
Iteration 205 Energy -127.12261368
O        0.0755372330   -1.5052114124    0.0003978262
H       -1.0309678070   -1.6944003832    0.0001358181
C       -0.0005130853    0.0040747131    0.0006348723
H       -0.5106533757    0.4549616313    0.9237609106
H        1.0776293008    0.3489899515    0.0005020889
H       -0.5107430515    0.4547828809   -0.9226180329
6    
Iteration 206 Energy -127.12261376
O        0.0756579988   -1.5053053444    0.0003980437
H       -1.0310879869   -1.6944427589    0.0001359248
C       -0.0005072541    0.0040890034    0.0006353183
H       -0.5106842651    0.4550077949    0.9238148895
H        1.0776862740    0.3490205899    0.0005024082
H       -0.5107740253    0.4548288790   -0.9226712985
6    
Iteration 207 Energy -127.12261381
O        0.0757787688   -1.5053992772    0.0003982612
H       -1.0312081659   -1.6944851332    0.0001360315
C       -0.0005014258    0.0041032928    0.0006357644
H       -0.5107151555    0.4550539600    0.9238688688
H        1.0777432472    0.3490512256    0.0005027274
H       -0.5108050002    0.4548748787   -0.9227245645
6    
Iteration 208 Energy -127.12261388
O        0.0758995432   -1.5054932109    0.0003984787
H       -1.0313283440   -1.6945275059    0.0001361382
C       -0.0004956005    0.0041175812    0.0006362105
H       -0.5107460469    0.4551001267    0.9239228485
H        1.0778002203    0.3490818587    0.0005030466
H       -0.5108359760    0.4549208799   -0.9227778310
6    
Iteration 209 Energy -127.12261399
O        0.0760203218   -1.5055871453    0.0003986962
H       -1.0314485212   -1.6945698771    0.0001362449
C       -0.0004897781    0.0041318686    0.0006366566
H       -0.5107769394    0.4551462949    0.9239768287
H        1.0778571935    0.3491124890    0.0005033657
H       -0.5108669529    0.4549668825   -0.9228310979
6    
Iteration 210 Energy -127.12261407
O        0.0761411047   -1.5056810806    0.0003989138
H       -1.0315686976   -1.6946122469    0.0001363516
C       -0.0004839587    0.0041461550    0.0006371027
H       -0.5108078328    0.4551924646    0.9240308093
H        1.0779141666    0.3491431168    0.0005036849
H       -0.5108979307    0.4550128867   -0.9228843653
6    
Iteration 211 Energy -127.12261415
O        0.0762618919   -1.5057750166    0.0003991314
H       -1.0316888731   -1.6946546151    0.0001364584
C       -0.0004781422    0.0041604404    0.0006375488
H       -0.5108387273    0.4552386358    0.9240847903
H        1.0779711398    0.3491737419    0.0005040041
H       -0.5109289096    0.4550588924   -0.9229376330
6    
Iteration 212 Energy -127.12261425
O        0.0763826833   -1.5058689535    0.0003993490
H       -1.0318090478   -1.6946969819    0.0001365651
C       -0.0004723287    0.0041747249    0.0006379949
H       -0.5108696229    0.4552848086    0.9241387718
H        1.0780281129    0.3492043643    0.0005043232
H       -0.5109598895    0.4551048996   -0.9229909012
6    
Iteration 213 Energy -127.12261433
O        0.0765034791   -1.5059628912    0.0003995666
H       -1.0319292215   -1.6947393473    0.0001366719
C       -0.0004665181    0.0041890084    0.0006384411
H       -0.5109005194    0.4553309829    0.9241927537
H        1.0780850860    0.3492349840    0.0005046423
H       -0.5109908704    0.4551509083   -0.9230441698
6    
Iteration 214 Energy -127.12261441
O        0.0766242791   -1.5060568297    0.0003997842
H       -1.0320493945   -1.6947817111    0.0001367787
C       -0.0004607105    0.0042032909    0.0006388872
H       -0.5109314169    0.4553771587    0.9242467360
H        1.0781420591    0.3492656011    0.0005049614
H       -0.5110218523    0.4551969186   -0.9230974389
6    
Iteration 215 Energy -127.12261448
O        0.0767450834   -1.5061507689    0.0004000019
H       -1.0321695665   -1.6948240735    0.0001368854
C       -0.0004549058    0.0042175724    0.0006393333
H       -0.5109623155    0.4554233360    0.9243007188
H        1.0781990322    0.3492962156    0.0005052806
H       -0.5110528353    0.4552429303   -0.9231507084
6    
Iteration 216 Energy -127.12261457
O        0.0768658921   -1.5062447090    0.0004002195
H       -1.0322897377   -1.6948664344    0.0001369922
C       -0.0004491040    0.0042318530    0.0006397795
H       -0.5109932151    0.4554695149    0.9243547020
H        1.0782560052    0.3493268273    0.0005055996
H       -0.5110838192    0.4552889435   -0.9232039783
6    
Iteration 217 Energy -127.12261463
O        0.0769867050   -1.5063386499    0.0004004372
H       -1.0324099081   -1.6949087938    0.0001370991
C       -0.0004433052    0.0042461326    0.0006402257
H       -0.5110241157    0.4555156953    0.9244086857
H        1.0783129783    0.3493574365    0.0005059187
H       -0.5111148042    0.4553349583   -0.9232572486
6    
Iteration 218 Energy -127.12261467
O        0.0771075222   -1.5064325916    0.0004006549
H       -1.0325300776   -1.6949511518    0.0001372059
C       -0.0004375093    0.0042604112    0.0006406718
H       -0.5110550173    0.4555618772    0.9244626697
H        1.0783699514    0.3493880429    0.0005062378
H       -0.5111457901    0.4553809746   -0.9233105194
6    
Iteration 219 Energy -127.12261471
O        0.0772283437   -1.5065265342    0.0004008727
H       -1.0326502463   -1.6949935083    0.0001373127
C       -0.0004317163    0.0042746889    0.0006411180
H       -0.5110859200    0.4556080607    0.9245166543
H        1.0784269244    0.3494186468    0.0005065569
H       -0.5111767771    0.4554269924   -0.9233637906
6    
Iteration 220 Energy -127.12261478
O        0.0773491694   -1.5066204775    0.0004010904
H       -1.0327704141   -1.6950358634    0.0001374196
C       -0.0004259263    0.0042889656    0.0006415642
H       -0.5111168237    0.4556542458    0.9245706392
H        1.0784838975    0.3494492479    0.0005068759
H       -0.5112077651    0.4554730117   -0.9234170623
6    
Iteration 221 Energy -127.12261490
O        0.0774699995   -1.5067144216    0.0004013082
H       -1.0328905810   -1.6950782169    0.0001375264
C       -0.0004201393    0.0043032413    0.0006420104
H       -0.5111477285    0.4557004324    0.9246246245
H        1.0785408705    0.3494798464    0.0005071950
H       -0.5112387541    0.4555190325   -0.9234703344
6    
Iteration 222 Energy -127.12261497
O        0.0775908338   -1.5068083665    0.0004015260
H       -1.0330107472   -1.6951205691    0.0001376333
C       -0.0004143552    0.0043175160    0.0006424566
H       -0.5111786342    0.4557466206    0.9246786103
H        1.0785978436    0.3495104423    0.0005075140
H       -0.5112697441    0.4555650548   -0.9235236070
6    
Iteration 223 Energy -127.12261504
O        0.0777116725   -1.5069023123    0.0004017438
H       -1.0331309125   -1.6951629198    0.0001377402
C       -0.0004085740    0.0043317898    0.0006429028
H       -0.5112095410    0.4557928103    0.9247325966
H        1.0786548166    0.3495410355    0.0005078330
H       -0.5113007351    0.4556110787   -0.9235768800
6    
Iteration 224 Energy -127.12261511
O        0.0778325154   -1.5069962588    0.0004019617
H       -1.0332510769   -1.6952052690    0.0001378471
C       -0.0004027957    0.0043460626    0.0006433490
H       -0.5112404488    0.4558390015    0.9247865832
H        1.0787117897    0.3495716260    0.0005081520
H       -0.5113317272    0.4556571040   -0.9236301534
6    
Iteration 225 Energy -127.12261518
O        0.0779533627   -1.5070902062    0.0004021795
H       -1.0333712405   -1.6952476168    0.0001379540
C       -0.0003970204    0.0043603345    0.0006437952
H       -0.5112713576    0.4558851943    0.9248405704
H        1.0787687627    0.3496022139    0.0005084710
H       -0.5113627202    0.4557031309   -0.9236834272
6    
Iteration 226 Energy -127.12261525
O        0.0780742142   -1.5071841544    0.0004023974
H       -1.0334914033   -1.6952899631    0.0001380609
C       -0.0003912480    0.0043746053    0.0006442415
H       -0.5113022675    0.4559313886    0.9248945579
H        1.0788257358    0.3496327992    0.0005087900
H       -0.5113937143    0.4557491593   -0.9237367016
6    
Iteration 227 Energy -127.12261530
O        0.0781950701   -1.5072781034    0.0004026153
H       -1.0336115653   -1.6953323080    0.0001381678
C       -0.0003854785    0.0043888752    0.0006446877
H       -0.5113331784    0.4559775845    0.9249485459
H        1.0788827088    0.3496633818    0.0005091089
H       -0.5114247094    0.4557951893   -0.9237899763
6    
Iteration 228 Energy -127.12261539
O        0.0783159302   -1.5073720532    0.0004028332
H       -1.0337317265   -1.6953746515    0.0001382748
C       -0.0003797120    0.0044031442    0.0006451340
H       -0.5113640903    0.4560237819    0.9250025344
H        1.0789396819    0.3496939617    0.0005094279
H       -0.5114557055    0.4558412207   -0.9238432515
6    
Iteration 229 Energy -127.12261544
O        0.0784367946   -1.5074660038    0.0004030511
H       -1.0338518868   -1.6954169935    0.0001383817
C       -0.0003739484    0.0044174121    0.0006455802
H       -0.5113950032    0.4560699808    0.9250565233
H        1.0789966550    0.3497245390    0.0005097468
H       -0.5114867026    0.4558872537   -0.9238965271
6    
Iteration 230 Energy -127.12261551
O        0.0785576634   -1.5075599552    0.0004032691
H       -1.0339720463   -1.6954593341    0.0001384887
C       -0.0003681878    0.0044316791    0.0006460265
H       -0.5114259171    0.4561161813    0.9251105127
H        1.0790536281    0.3497551137    0.0005100658
H       -0.5115177008    0.4559332882   -0.9239498032
6    
Iteration 231 Energy -127.12261562
O        0.0786785364   -1.5076539075    0.0004034871
H       -1.0340922050   -1.6955016733    0.0001385957
C       -0.0003624300    0.0044459452    0.0006464728
H       -0.5114568321    0.4561623833    0.9251645025
H        1.0791106012    0.3497856857    0.0005103847
H       -0.5115486999    0.4559793242   -0.9240030798
6    
Iteration 232 Energy -127.12261568
O        0.0787994138   -1.5077478605    0.0004037051
H       -1.0342123629   -1.6955440110    0.0001387027
C       -0.0003566752    0.0044602102    0.0006469191
H       -0.5114877480    0.4562085868    0.9252184927
H        1.0791675743    0.3498162550    0.0005107036
H       -0.5115797001    0.4560253618   -0.9240563567
6    
Iteration 233 Energy -127.12261575
O        0.0789202954   -1.5078418144    0.0004039231
H       -1.0343325200   -1.6955863473    0.0001388097
C       -0.0003509233    0.0044744744    0.0006473654
H       -0.5115186650    0.4562547920    0.9252724834
H        1.0792245474    0.3498468218    0.0005110225
H       -0.5116107012    0.4560714009   -0.9241096342
6    
Iteration 234 Energy -127.12261582
O        0.0790411814   -1.5079357691    0.0004041411
H       -1.0344526763   -1.6956286822    0.0001389167
C       -0.0003451744    0.0044887375    0.0006478117
H       -0.5115495831    0.4563009986    0.9253264746
H        1.0792815206    0.3498773858    0.0005113414
H       -0.5116417034    0.4561174415   -0.9241629120
6    
Iteration 235 Energy -127.12261590
O        0.0791620716   -1.5080297245    0.0004043591
H       -1.0345728317   -1.6956710156    0.0001390237
C       -0.0003394283    0.0045029997    0.0006482580
H       -0.5115805021    0.4563472068    0.9253804662
H        1.0793384938    0.3499079472    0.0005116602
H       -0.5116727067    0.4561634836   -0.9242161904
6    
Iteration 236 Energy -127.12261596
O        0.0792829662   -1.5081236809    0.0004045772
H       -1.0346929864   -1.6957133476    0.0001391308
C       -0.0003336852    0.0045172609    0.0006487043
H       -0.5116114222    0.4563934165    0.9254344583
H        1.0793954669    0.3499385060    0.0005119791
H       -0.5117037109    0.4562095273   -0.9242694691
6    
Iteration 237 Energy -127.12261606
O        0.0794038651   -1.5082176380    0.0004047953
H       -1.0348131403   -1.6957556782    0.0001392378
C       -0.0003279451    0.0045315211    0.0006491506
H       -0.5116423433    0.4564396278    0.9254884508
H        1.0794524401    0.3499690622    0.0005122979
H       -0.5117347161    0.4562555725   -0.9243227484
6    
Iteration 238 Energy -127.12261611
O        0.0795247682   -1.5083115959    0.0004050134
H       -1.0349332933   -1.6957980074    0.0001393449
C       -0.0003222078    0.0045457804    0.0006495970
H       -0.5116732654    0.4564858407    0.9255424438
H        1.0795094134    0.3499996156    0.0005126168
H       -0.5117657224    0.4563016192   -0.9243760281
6    
Iteration 239 Energy -127.12261618
O        0.0796456757   -1.5084055547    0.0004052315
H       -1.0350534456   -1.6958403352    0.0001394519
C       -0.0003164735    0.0045600387    0.0006500433
H       -0.5117041885    0.4565320550    0.9255964373
H        1.0795663866    0.3500301665    0.0005129356
H       -0.5117967296    0.4563476674   -0.9244293082
6    
Iteration 240 Energy -127.12261627
O        0.0797665875   -1.5084995143    0.0004054496
H       -1.0351735971   -1.6958826616    0.0001395590
C       -0.0003107420    0.0045742961    0.0006504897
H       -0.5117351127    0.4565782710    0.9256504312
H        1.0796233599    0.3500607147    0.0005132544
H       -0.5118277379    0.4563937172   -0.9244825888
6    
Iteration 241 Energy -127.12261634
O        0.0798875036   -1.5085934746    0.0004056678
H       -1.0352937478   -1.6959249865    0.0001396661
C       -0.0003050135    0.0045885525    0.0006509361
H       -0.5117660379    0.4566244884    0.9257044255
H        1.0796803332    0.3500912603    0.0005135732
H       -0.5118587472    0.4564397685   -0.9245358698
6    
Iteration 242 Energy -127.12261644
O        0.0800084240   -1.5086874359    0.0004058860
H       -1.0354138977   -1.6959673101    0.0001397732
C       -0.0002992880    0.0046028079    0.0006513824
H       -0.5117969641    0.4566707075    0.9257584204
H        1.0797373065    0.3501218032    0.0005138920
H       -0.5118897576    0.4564858214   -0.9245891513
6    
Iteration 243 Energy -127.12261655
O        0.0801293488   -1.5087813979    0.0004061042
H       -1.0355340468   -1.6960096322    0.0001398804
C       -0.0002935653    0.0046170624    0.0006518288
H       -0.5118278913    0.4567169281    0.9258124156
H        1.0797942798    0.3501523435    0.0005142108
H       -0.5119207689    0.4565318758   -0.9246424333
6    
Iteration 244 Energy -127.12261660
O        0.0802502778   -1.5088753607    0.0004063224
H       -1.0356541952   -1.6960519529    0.0001399875
C       -0.0002878456    0.0046313159    0.0006522752
H       -0.5118588195    0.4567631502    0.9258664114
H        1.0798512532    0.3501828811    0.0005145295
H       -0.5119517813    0.4565779317   -0.9246957157
6    
Iteration 245 Energy -127.12261671
O        0.0803712112   -1.5089693244    0.0004065406
H       -1.0357743427   -1.6960942723    0.0001400946
C       -0.0002821287    0.0046455685    0.0006527216
H       -0.5118897488    0.4568093739    0.9259204076
H        1.0799082266    0.3502134162    0.0005148483
H       -0.5119827946    0.4566239891   -0.9247489986
6    
Iteration 246 Energy -127.12261678
O        0.0804921488   -1.5090632888    0.0004067589
H       -1.0358944895   -1.6961365902    0.0001402018
C       -0.0002764148    0.0046598201    0.0006531680
H       -0.5119206791    0.4568555991    0.9259744043
H        1.0799652000    0.3502439485    0.0005151670
H       -0.5120138090    0.4566700481   -0.9248022819
6    
Iteration 247 Energy -127.12261687
O        0.0806130908   -1.5091572541    0.0004069771
H       -1.0360146355   -1.6961789068    0.0001403090
C       -0.0002707038    0.0046740707    0.0006536145
H       -0.5119516105    0.4569018259    0.9260284014
H        1.0800221735    0.3502744783    0.0005154857
H       -0.5120448244    0.4567161086   -0.9248555657
6    
Iteration 248 Energy -127.12261697
O        0.0807340371   -1.5092512202    0.0004071954
H       -1.0361347808   -1.6962212219    0.0001404162
C       -0.0002649958    0.0046883204    0.0006540609
H       -0.5119825428    0.4569480543    0.9260823990
H        1.0800791470    0.3503050054    0.0005158045
H       -0.5120758409    0.4567621707   -0.9249088500
6    
Iteration 249 Energy -127.12261706
O        0.0808549877   -1.5093451872    0.0004074138
H       -1.0362549253   -1.6962635357    0.0001405234
C       -0.0002592906    0.0047025692    0.0006545073
H       -0.5120134762    0.4569942842    0.9261363971
H        1.0801361205    0.3503355298    0.0005161232
H       -0.5121068583    0.4568082343   -0.9249621347
