6
Iteration 0 Energy -127.12256308570306 
O  0.0 -1.4330000000739278 0.0
H  -0.9620000000496292 -1.6700000000861546 0.0
C  0.0 0.0 0.0
H  -0.49000000002527894 0.4170000000215129 0.8860000000457083
H  1.0400000000536533 0.3310000000170762 0.0
H  -0.49000000002527894 0.4170000000215129 -0.8860000000457083
6
Iteration 1 Energy -127.12258127533254 
O  0.02484553866442569 -1.4632369296010503 0.0002960379085517565
H  -0.9807309225882922 -1.6766240743847076 8.63846878262445e-05
C  -0.002773462172308882 -0.0015909671624875436 0.0004258470960382152
H  -0.4971914840439726 0.43438179580684333 0.9000943330110064
H  1.0526762324369103 0.33562453833771205 0.0003490032030854126
H  -0.4972428665458363 0.4342784275784371 -0.8992913806066345
6
Iteration 2 Energy -127.12259037666564 
O  0.03802100835734599 -1.4756660232478531 0.00033086582902273106
H  -0.9933845733424536 -1.681087046135381 0.00010309154007186687
C  -0.0024666563834289707 -0.0004414558150664792 0.0004956866422601183
H  -0.5009924011070015 0.4405241392563919 0.9068115934432306
H  1.059697984711125 0.3392299898418803 0.000401655948659558
H  -0.5010552895563198 0.4403964183949917 -0.9058915082969086
6
Iteration 3 Energy -127.12259588412536 
O  0.04551306035827362 -1.4816203858621888 0.00034325568396002793
H  -1.0009655766351282 -1.6837575729194731 0.00010910688140200842
C  -0.002031676695354089 0.0004982578993471808 0.0005222001503320874
H  -0.5029393761914018 0.4433920351963878 0.9102310594151252
H  1.0633385112888118 0.34123420962404877 0.00042078043309819847
H  -0.5030075798775926 0.44325453903471596 -0.9092690674143432
6
Iteration 4 Energy -127.12259795940534 
O  0.048850377659251286 -1.484360116233095 0.00034986577125426785
H  -1.0042878816859968 -1.6849556450254768 0.00011236418175692705
C  -0.0018747993442341153 0.000883985006743916 0.0005358037728180562
H  -0.5038192889550582 0.4447387644800301 0.9117823688062999
H  1.064974966678911 0.3421214335628378 0.0004307274910059587
H  -0.5038900290270188 0.4445963741231706 -0.9107982470700388
6
Iteration 5 Energy -127.1225989483278 
O  0.05047673912525973 -1.4856583463924231 0.0003529027341978586
H  -1.0059153334876987 -1.6855374859156858 0.00011385153523208743
C  -0.0017919684358659205 0.0010770674637180782 0.0005420850269398684
H  -0.5042406121741246 0.4453752516417739 0.9125238097336326
H  1.0657582353385824 0.34254863291355686 0.0004352938590330958
H  -0.5043125461547114 0.4452305859584886 -0.9115295503847846
6
Iteration 6 Energy -127.1225994988933 
O  0.05126433228309879 -1.4862795984966926 0.00035433640236997194
H  -1.0067051268499572 -1.6858188293094996 0.00011455146888554443
C  -0.0017505501620886717 0.001171639073680245 0.0005450561019908791
H  -0.5044431828935393 0.44567949900016735 0.9128800036815768
H  1.066134729423172 0.342754394335734 0.00043744818000634496
H  -0.5045156865626862 0.4455337537995889 -0.9118809662251162
6
Iteration 7 Energy -127.1225997577297 
O  0.05164485739839636 -1.4865781327518095 0.00035502079280394944
H  -1.0070869870364052 -1.685954523403332 0.00011488519284524407
C  -0.0017302953698521278 0.0012175147393234447 0.0005464760260776226
H  -0.5045407455279537 0.44582560826466394 0.9130514521519252
H  1.0663159850022126 0.3428535059445845 0.0004384764102975806
H  -0.5046135224801953 0.4456793463469325 -0.912050135148916
6
Iteration 8 Energy -127.12259986204353 
O  0.051828497146007915 -1.4867218385799372 0.0003553492046042567
H  -1.0072713299586669 -1.6860199518705654 0.00011504524160631404
C  -0.0017204664124298562 0.0012396947466370687 0.0005471577627793147
H  -0.5045877599164714 0.44589591967873443 0.9131340471124213
H  1.0664033121962706 0.3429012667186426 0.0004389697759385278
H  -0.5046606683089504 0.4457494094899301 -0.9121316365616502
6
Iteration 9 Energy -127.122599917278 
O  0.051948440615028534 -1.486815621991415 0.0003555633193676296
H  -1.0073917419614071 -1.6860626722756644 0.00011514957157762989
C  -0.0017140371585795781 0.0012541891169321135 0.0005476022990529901
H  -0.5046184528176824 0.44594180139290074 0.9131879625604978
H  1.0664603179898564 0.34293244472633616 0.00043929140807365984
H  -0.5046914469623949 0.4457951292694162 -0.9121848391424487
6
Iteration 10 Energy -127.12260002265883 
O  0.05206838935915432 -1.4869094069335942 0.0003557774517129866
H  -1.0075121537401461 -1.6861053911111006 0.00011525391413992949
C  -0.0017076109448537983 0.0012686825505108664 0.0005480468467408179
H  -0.5046491469713166 0.4459876848545136 0.9132418787135123
H  1.066517323988704 0.3429636202265533 0.00043961303063380354
H  -0.504722226861184 0.4458408507766201 -0.9122380424205451
6
Iteration 11 Energy -127.12260011783216 
O  0.0521883421292535 -1.4870031925498584 0.0003559915992186082
H  -1.007632564005425 -1.6861481079160203 0.0001153582683031694
C  -0.0017011878585047947 0.0012831748872714356 0.00054849140093577
H  -0.5046798420922127 0.4460335696406241 0.913295795065312
H  1.0665743296575851 0.3429947929011486 0.00043993464002745145
H  -0.5047530077198519 0.4458865735907143 -0.9122912458968588
6
Iteration 12 Energy -127.1226001861573 
O  0.0523082989273076 -1.487096978841708 0.0003562057624163143
H  -1.0077529727606638 -1.6861908226938018 0.00011546263411824337
C  -0.0016947678997879083 0.0012976661276544684 0.0005489359622962083
H  -0.5047105381815682 0.4460794557524185 0.9133497116178949
H  1.0666313349974494 0.34302596275085245 0.0004402562375541544
H  -0.5047837895394859 0.44593229771272624 -0.9123444495729258
6
Iteration 13 Energy -127.12260024792718 
O  0.05242825975476562 -1.4871907658109886 0.00035641994058243807
H  -1.0078733800099653 -1.6862335354475937 0.0001155670112547237
C  -0.0016883510668875199 0.001312156271339828 0.0005493805299964795
H  -0.5047412352392298 0.4461253431905389 0.9134036283718714
H  1.0666883400107354 0.3430571297762174 0.000440577822864617
H  -0.5048145723198144 0.44597802314344054 -0.912397653450135
6
Iteration 14 Energy -127.12260029953214 
O  0.05254822461384463 -1.487284553457181 0.00035663413389552714
H  -1.0079937857567476 -1.6862762461801692 0.00011567139995409968
C  -0.0016819373584011903 0.0013266453204432962 0.0005498251042717804
H  -0.5047719332654459 0.446171231957007 0.9134575453288379
H  1.0667453446995603 0.34308829397895524 0.0004408993952778834
H  -0.5048453560613245 0.44602374988471 -0.9124508575294045
6
Iteration 15 Energy -127.12260038093376 
O  0.052668193505640684 -1.487378341781568 0.00035684834368655507
H  -1.0081141900052943 -1.6863189548946997 0.0001157758005053759
C  -0.001675526773747664 0.0013411332751558829 0.0005502696855521727
H  -0.5048026322609753 0.4462171220529517 0.9135114624899365
H  1.0668023490655556 0.34311945535984867 0.00044122095542205547
H  -0.5048761407635338 0.4460694779373761 -0.9125040618130353
6
Iteration 16 Energy -127.12260043618527 
O  0.052788166431264855 -1.4874721307859067 0.00035706256867773636
H  -1.0082345927592626 -1.6863616615943868 0.00011588021258098475
C  -0.0016691193122752395 0.0013556201361140242 0.0005507142742116814
H  -0.5048333322259857 0.4462630134795513 0.9135653798573655
H  1.0668593531103008 0.3431506139197498 0.00044154250313093823
H  -0.5049069264277694 0.4461152073028867 -0.9125572663010907
6
Iteration 17 Energy -127.12260048852521 
O  0.05290814339438563 -1.4875659204703013 0.0003572768088687041
H  -1.0083549940217191 -1.686404366282212 0.00011598463642844974
C  -0.001662714972087367 0.0013701059040810727 0.0005511588699663128
H  -0.5048640331597034 0.44630890623725766 0.9136192974326148
H  1.0669163568360047 0.34318176966007946 0.00044186403768835193
H  -0.5049377130544377 0.44616093798242995 -0.9126104709952155
6
Iteration 18 Energy -127.12260058079266 
O  0.0530281243950936 -1.487659710835605 0.00035749106537780564
H  -1.0084753937969386 -1.6864470689611242 0.0001160890722342378
C  -0.0016563137525551217 0.0013845905798346022 0.0005516034716842183
H  -0.5048947350637503 0.44635480032841846 0.9136732152158017
H  1.0669733602445999 0.34321292258135183 0.000442185559383396
H  -0.5049685006436162 0.4462066699771211 -0.912663675898114
6
Iteration 19 Energy -127.12260064837714 
O  0.0531481094349339 -1.487753501883575 0.000357705336790513
H  -1.0085957920886857 -1.686489769634457 0.00011619351940975364
C  -0.0016499156535608305 0.001399074163969271 0.0005520480804382316
H  -0.5049254379383866 0.4464006957538616 0.9137271332087674
H  1.0670303633374734 0.3432440726845474 0.00044250706845735564
H  -0.5049992891961834 0.4462524032883153 -0.9127168810099169
6
Iteration 20 Energy -127.12260074503747 
O  0.05326809851667003 -1.4878472936146 0.0003579196230095015
H  -1.0087161889004477 -1.6865324683051777 0.00011629797785850721
C  -0.0016435206733240424 0.0014135566569060858 0.0005524926966387156
H  -0.5049561417837805 0.44644659251419233 0.9137810514138837
H  1.0670873661166065 0.3432752199705746 0.0004428285654911766
H  -0.5050300787120982 0.4462981379171754 -0.9127700863316939
6
Iteration 21 Energy -127.12260079880767 
O  0.05338809164094292 -1.4879410860301228 0.00035813392506299177
H  -1.0088365842362044 -1.6865751649762843 0.00011640244801960388
C  -0.0016371288106032727 0.0014280380590422298 0.0005529373194829759
H  -0.5049868466000759 0.4464924906111522 0.9138349698317711
H  1.0671443685839077 0.3433063644402461 0.00044315004992885295
H  -0.5050608691915764 0.44634387386440416 -0.9128232918660837
6
Iteration 22 Energy -127.12260087875633 
O  0.05350808880896164 -1.4880348791312932 0.00035834824323253695
H  -1.008956978099923 -1.6866178596510715 0.00011650692999303538
C  -0.0016307400659636977 0.0014425183716717295 0.0005533819495950304
H  -0.5050175523887832 0.4465383900461173 0.9138888884633681
H  1.0672013707407149 0.34333750609464386 0.0004434715219201556
H  -0.5050916606355865 0.4463896111316377 -0.912876497613324
6
Iteration 23 Energy -127.12260093037264 
O  0.05362809002394804 -1.4881286729177075 0.00035856257702245785
H  -1.0090773704946723 -1.6866605523322682 0.00011661142368311882
C  -0.0016243544369160963 0.0014569975956126072 0.0005538265862190385
H  -0.505048259149242 0.4465842908199845 0.9139428073103553
H  1.0672583725895568 0.3433686449351116 0.0004437929811586036
H  -0.5051224530441001 0.44643534972030513 -0.9129297035753277
6
Iteration 24 Energy -127.12260102845471 
O  0.05374809528661055 -1.4882224673907978 0.00035877692652008564
H  -1.0091977614245606 -1.6867032430229563 0.00011671592907305147
C  -0.0016179719225977401 0.0014714757313396454 0.0005542712296780402
H  -0.5050789668819293 0.44663019293412437 0.9139967263744712
H  1.0673153741322525 0.3433997809623292 0.00044411442784628863
H  -0.5051532464172119 0.4464810896314118 -0.9129829097532229
6
Iteration 25 Energy -127.12260108297407 
O  0.05386810459858284 -1.4883162625527875 0.0003589912912619347
H  -1.0093181508929818 -1.686745931726515 0.00011682044610206615
C  -0.0016115925228198256 0.001485952779089147 0.0005547158800268281
H  -0.5051096755865208 0.44667609638922345 0.9140506456571796
H  1.0673723753698507 0.3434309141771973 0.0004444358617375745
H  -0.5051840407558816 0.4465268308658212 -0.9130361161488818
6
Iteration 26 Energy -127.1226011738056 
O  0.053988117962149904 -1.4884100584028503 0.0003592056733240269
H  -1.0094385389035618 -1.6867886184455954 0.00011692497543124499
C  -0.0016052162356845307 0.0015004287402056173 0.0005551605381664462
H  -0.505140385264303 0.4467220011874603 0.914104565159596
H  1.0674293763051297 0.34346204458084983 0.0004447572836193699
H  -0.5052148360597557 0.44657257342503226 -0.9130893227628811
6
Iteration 27 Energy -127.12260128136585 
O  0.054108135378364036 -1.4885038549427712 0.0003594200704493078
H  -1.0095589254606157 -1.6868313031833906 0.00011702951596951112
C  -0.0015988430602829444 0.0015149036147496348 0.0005556052027273771
H  -0.505171095915437 0.44676790732925636 0.9141584848825134
H  1.067486376939516 0.3434931721738655 0.00044507869319018007
H  -0.5052456323285724 0.44661831731019463 -0.9131425295969323
6
Iteration 28 Energy -127.12260132497678 
O  0.054228156848774994 -1.4885976521736952 0.000359634482913948
H  -1.0096793105672766 -1.6868739859430908 0.00011713406803069597
C  -0.0015924729968065621 0.0015293774034796858 0.0005560498744508532
H  -0.5052018075405155 0.44681381481581417 0.9142124048282416
H  1.0675433772743217 0.3435242969571895 0.00044540009032113814
H  -0.5052764295642597 0.4466640625224683 -0.9131957366527645
6
Iteration 29 Energy -127.12260140999656 
O  0.05434818237605545 -1.4886914500956445 0.0003598489106504532
H  -1.0097996942270662 -1.6869166667275195 0.00011723863153681119
C  -0.00158610604318378 0.0015438501076963302 0.0005564945530693934
H  -0.5052325201397101 0.44685972364836607 0.9142663249977644
H  1.0676003773119211 0.3435554189321403 0.0004457214749585495
H  -0.505307227766378 0.4467098090631518 -0.9132489439311048
6
Iteration 30 Energy -127.12260149793357 
O  0.05446821196075438 -1.4887852487097044 0.00036006335482976197
H  -1.009920076443979 -1.6869593455395995 0.0001173432071244864
C  -0.0015797421982154355 0.001558321728193522 0.0005569392383648393
H  -0.5052632337130519 0.44690563382844356 0.9143202453922581
H  1.0676573770543503 0.3435865380997968 0.0004460428466720712
H  -0.5053380269352499 0.4467555569335431 -0.9133021514335932
6
Iteration 31 Energy -127.12260157640661 
O  0.054588245603863134 -1.4888790480181318 0.0003602778146443124
H  -1.0100404572217594 -1.6870020223827293 0.00011744779424978094
C  -0.0015733814622387427 0.0015727922646103264 0.0005573839317295355
H  -0.5052939482615019 0.4469515453569515 0.9143741660138895
H  1.0677143765026593 0.34361765446049114 0.00044636420634909177
H  -0.5053688270717337 0.4468013061342707 -0.9133553591614672
6
Iteration 32 Energy -127.12260167306127 
O  0.05470828330896172 -1.4889728480201698 0.0003604922900975782
H  -1.0101608365636754 -1.6870446972596636 0.00011755239301996934
C  -0.0015670238331243365 0.001587261718068315 0.0005578286316553922
H  -0.5053246637849096 0.4469974582350439 0.9144280868628506
H  1.067771375659096 0.3436487680156118 0.00044668555330216645
H  -0.5053996281758678 0.44684705666685814 -0.9134085671162544
6
Iteration 33 Energy -127.12260171523062 
O  0.054828325076392515 -1.4890666487173836 0.00036070678198334784
H  -1.0102812144735658 -1.6870873701734004 0.00011765700373380278
C  -0.0015606693098891933 0.0016017300894205066 0.0005582733383541988
H  -0.5053553802837649 0.44704337246400233 0.9144820079410604
H  1.0678283745256403 0.34367987876607636 0.00044700688803617856
H  -0.5054304302477465 0.4468928085326486 -0.9134617752990355
6
Iteration 34 Energy -127.12260180385438 
O  0.05494837090745209 -1.489160450111263 0.00036092128928050504
H  -1.0104015909553656 -1.6871300411271528 0.00011776162603076546
C  -0.0015543178922766377 0.0016161973790621556 0.0005587180522670654
H  -0.5053860977578736 0.4470892880446591 0.9145359292497293
H  1.067885373103751 0.34371098671245115 0.00044732821008461294
H  -0.505461233288249 0.446938561732428 -0.9135149837116656
6
Iteration 35 Energy -127.12260188235294 
O  0.055068420804478505 -1.4892542522017296 0.000361135811367806
H  -1.0105219660124236 -1.6871727101237364 0.00011786625962423864
C  -0.0015479695787720066 0.0016306635879478303 0.0005591627727379286
H  -0.5054168162080146 0.44713520497821924 0.9145898507904919
H  1.0679423713952847 0.3437420918559436 0.0004476495194643881
H  -0.5054920372976299 0.4469843162679393 -0.9135681923550032
6
Iteration 36 Energy -127.12260198119269 
O  0.055188474768145174 -1.48934805499151 0.0003613503491171582
H  -1.010642339648596 -1.6872153771664065 0.00011797090481905082
C  -0.001541624368331683 0.001645128715824175 0.00055960750072235
H  -0.5054475356343291 0.4471811232657297 0.9146437725645177
H  1.0679993694022016 0.34377319419702196 0.0004479708166877761
H  -0.5055228422759402 0.44703007213956125 -0.9136214012298408
6
Iteration 37 Energy -127.12260204948662 
O  0.05530853280153048 -1.4894418584785665 0.0003615649042247071
H  -1.0107627118671558 -1.6872580422579058 0.00011807556227016785
C  -0.0015352822610973965 0.001659592764668793 0.0005600522361443633
H  -0.505478256038252 0.4472270429094285 0.9146976945731881
H  1.0680563671255408 0.3438042937375542 0.00044829210173270536
H  -0.5055536482240363 0.44707582934893647 -0.9136746103388742
6
Iteration 38 Energy -127.12260209747342 
O  0.05542859490590138 -1.4895356626650595 0.0003617794750906987
H  -1.01088308267157 -1.6873007054012321 0.00011818023144212577
C  -0.0015289432547004667 0.0016740557346726446 0.0005604969782304206
H  -0.5055089774191368 0.44727296390977894 0.9147516168177156
H  1.068113364568015 0.3438353904781678 0.00044861337381058513
H  -0.5055844551415506 0.44712158789725237 -0.9137278196825621
6
Iteration 39 Energy -127.12260215924329 
O  0.055548661081311256 -1.4896294675532085 0.0003619940619602098
H  -1.0110034520661986 -1.6873433665995317 0.00011828491219821517
C  -0.001522607348310423 0.0016885176259993533 0.0005609417273682133
H  -0.5055396997773397 0.44731888626784155 0.9148055392991166
H  1.0681703617314056 0.343866484419268 0.000448934633735411
H  -0.5056152630280448 0.4471673477854654 -0.9137810292620728
6
Iteration 40 Energy -127.1226022595076 
O  0.055668731330803904 -1.48972327314187 0.0003622086647307911
H  -1.0111238200539645 -1.6873860258556834 0.00011838960468699361
C  -0.001516274542042874 0.0017029784401738485 0.0005613864833499916
H  -0.5055704231137259 0.4473648099852798 0.9148594620192265
H  1.0682273586168471 0.3438975755623992 0.0004492558807755453
H  -0.5056460718853462 0.44721310901500105 -0.9138342390797278
6
Iteration 41 Energy -127.12260234746448 
O  0.05578880565598646 -1.489817079432017 0.00036242328335971043
H  -1.0112441866387365 -1.6874286831725884 0.00011849430892016216
C  -0.0015099448339908476 0.0017174381778608185 0.0005618312465674568
H  -0.5056011474281359 0.44741073506303597 0.9149133849795003
H  1.0682843552265138 0.3439286639084792 0.000449577115123295
H  -0.5056768817133538 0.44725887158699784 -0.9138874491358324
6
Iteration 42 Energy -127.12260240850505 
O  0.055908884057780175 -1.4899108864266761 0.0003626379176881326
H  -1.011364551824172 -1.6874713385535425 0.00011859902482378388
C  -0.0015036182229733717 0.0017318968384073784 0.0005622760170775139
H  -0.5056318727200615 0.4474566615012588 0.9149673081810009
H  1.0683413515620388 0.34395974945790647 0.0004498983372845408
H  -0.5057076925123194 0.4473046355023543 -0.9139406594316253
6
Iteration 43 Energy -127.1226024630017 
O  0.0560289665385228 -1.490004694124743 0.0003628525681162139
H  -1.0114849156137626 -1.6875139920013429 0.00011870375253628981
C  -0.0014972947088113546 0.0017463544234546673 0.0005627207951574422
H  -0.5056625989910057 0.4475025893020847 0.9150212316252954
H  1.068398347625314 0.34399083221179905 0.0004502195470685564
H  -0.505738504283043 0.44735040076231736 -0.9139938699682725
6
Iteration 44 Energy -127.1226025531238 
O  0.056149053099249835 -1.4900985025276492 0.0003630672342173426
H  -1.0116052780108753 -1.6875566435188865 0.00011880849181257243
C  -0.0014909742898090344 0.001760810933668717 0.0005631655798501185
H  -0.5056933262408679 0.4475485184665523 0.9150751553133423
H  1.0684553434181219 0.34402191217129424 0.0004505407441008162
H  -0.5057693170252467 0.4473961673680406 -0.9140470807484442
6
Iteration 45 Energy -127.12260260836112 
O  0.05626914374093177 -1.4901923116364493 0.0003632819154442426
H  -1.0117256390194944 -1.6875992931091814 0.00011891324247887631
C  -0.0014846569652768042 0.0017752663701969804 0.0005636103714637273
H  -0.5057240544700939 0.4475944489957638 0.9151290792464692
H  1.068512338942066 0.3440529893373667 0.00045086192858676444
H  -0.5058001307398233 0.44744193532107934 -0.9141002917722384
6
Iteration 46 Energy -127.12260265997175 
O  0.05638923846556447 -1.490286121451811 0.0003634966131017088
H  -1.0118459986432748 -1.6876419407753276 0.00011901800502602733
C  -0.0014783427350287084 0.001789720733011958 0.0005640551703086447
H  -0.5057547836795356 0.4476403808909693 0.915183003425827
H  1.068569334198833 0.34408406371066264 0.00045118310065647596
H  -0.5058309454270933 0.44748770462212883 -0.9141535030412211
6
Iteration 47 Energy -127.12260273263301 
O  0.05650933727551043 -1.4903799319739928 0.00036371132722110114
H  -1.0119663568851478 -1.6876845865200831 0.0001191227794020184
C  -0.0014720315970367587 0.0018041740230647905 0.0005644999771178596
H  -0.505785513869197 0.4476863141531984 0.9152369278539081
H  1.0686263291904732 0.34411513529258814 0.0004515042608561268
H  -0.5058617610869053 0.44753347527241066 -0.9142067145567299
6
Iteration 48 Energy -127.12260284598514 
O  0.05662944017155708 -1.4904737432050652 0.00036392605754818246
H  -1.012086713749128 -1.6877272303465822 0.00011922756560766978
C  -0.00146572355030386 0.0018186262403932431 0.0005649447906040309
H  -0.5058162450390614 0.44773224878353296 0.9152908525301985
H  1.0686833239188256 0.3441462040834761 0.0004518254080593952
H  -0.5058925777195378 0.447579247272785 -0.9142599263202944
6
Iteration 49 Energy -127.1226029230109 
O  0.05674954715457705 -1.490567555145164 0.0003641408046068191
H  -1.0122070692393235 -1.6877698722578016 0.00011933236373595875
C  -0.0014594185952509619 0.0018330773863385102 0.0005653896116722114
H  -0.5058469771902854 0.4477781847836518 0.9153447774572088
H  1.0687403183847182 0.34417727008431176 0.00045214654353061814
H  -0.50592339532581 0.4476250206247791 -0.9143131383326932
6
Iteration 50 Energy -127.12260299204833 
O  0.05686965822773848 -1.4906613677945493 0.00036435556705092576
H  -1.012327423358039 -1.6878125122564778 0.00011943717321857946
C  -0.0014531167294562707 0.001847527461447803 0.0005658344392484718
H  -0.5058777103224853 0.4478241221542844 0.9153987026356378
H  1.0687973125909596 0.34420833329626194 0.0004524676664192813
H  -0.5059542139055933 0.4476707953296405 -0.9143663505965042
6
Iteration 51 Energy -127.12260308142977 
O  0.05698977339139619 -1.4907551811554633 0.0003645703452645028
H  -1.0124477761096558 -1.6878551503457564 0.00011954199455097277
C  -0.0014468179519650994 0.0018619764658809712 0.0005662792738656067
H  -0.5059084444349459 0.447870060896149 0.9154526280671479
H  1.0688543065392504 0.3442393937198451 0.0004527887763988418
H  -0.5059850334595569 0.44771657138821014 -0.9144195631115651
6
Iteration 52 Energy -127.1226031700819 
O  0.05710989264762786 -1.4908489952273354 0.0003647851403981766
H  -1.0125681274976466 -1.6878977865285372 0.00011964682796964765
C  -0.0014405222629662268 0.0018764244009756667 0.0005667241170857646
H  -0.5059391795295927 0.4479160010107895 0.9155065537542745
H  1.0689113002307744 0.3442704513564072 0.00045310987442376656
H  -0.5060158539881755 0.447762348801803 -0.9144727758789798
6
Iteration 53 Energy -127.12260325875106 
O  0.05723001599859691 -1.4909428100109712 0.00036499995090176956
H  -1.0126884775251153 -1.687940420807635 0.00011975167254389201
C  -0.0014342296602935104 0.0018908712671453643 0.0005671689669201412
H  -0.5059699156062838 0.4479619424993552 0.915560479696565
H  1.0689682936678921 0.3443015062066112 0.0004534309602733035
H  -0.5060466754905475 0.4478081275714361 -0.9145259889016514
6
Iteration 54 Energy -127.12260331836139 
O  0.057350143443581074 -1.491036625509075 0.00036521477758676553
H  -1.012808826196497 -1.6879830531863702 0.00011985652892119319
C  -0.001427940144609772 0.0019053170644366343 0.0005676138244681053
H  -0.5060006526656486 0.44800788536278124 0.9156144058961322
H  1.0690252868513643 0.34433255827112347 0.00045375203372866773
H  -0.5060774979684071 0.4478539076982872 -0.9145792021794243
6
Iteration 55 Energy -127.12260340410764 
O  0.05747027498582823 -1.4911304417212385 0.0003654296202270472
H  -1.0129291735145807 -1.6880256836673615 0.0001199613970667614
C  -0.0014216537133083717 0.001919761794130806 0.0005680586889248283
H  -0.5060313907073432 0.44805382960225804 0.9156683323539214
H  1.0690822797838808 0.3443636075512926 0.00045407309425919755
H  -0.50610832142142 0.44789968918335915 -0.914632415713863
6
Iteration 56 Energy -127.1226034513339 
O  0.05759041062791253 -1.4912242586475186 0.0003656444794089696
H  -1.013049519482245 -1.6880683122534947 0.00012006627700509895
C  -0.001415370365543567 0.0019342054570897866 0.0005685035600681591
H  -0.5060621297321086 0.4480997752190377 0.9157222590706448
H  1.0691392724671274 0.34439465404815817 0.00045439414244358845
H  -0.506139145849855 0.4479454720279213 -0.9146856295074015
6
Iteration 57 Energy -127.12260354072953 
O  0.05771055036832704 -1.4913180762910552 0.00036585935433683825
H  -1.013169864104529 -1.6881109389480924 0.00012017116850769636
C  -0.0014090901017704206 0.0019486480531238312 0.0005689484389241161
H  -0.5060928697404833 0.44814572221395343 0.9157761860488131
H  1.0691962649015416 0.344425697762023 0.0004547151785446218
H  -0.5061699712546968 0.4479912562329862 -0.9147388435597446
6
Iteration 58 Energy -127.12260362284059 
O  0.05783069421101214 -1.4914118946503203 0.00036607424589354205
H  -1.013290207384076 -1.6881535637537362 0.00012027607181825338
C  -0.0014028129201125107 0.001963089583469064 0.0005693933256362164
H  -0.5061236107327889 0.44819167058872866 0.9158301132891611
H  1.0692532570898605 0.34445673869429283 0.00045503620278338993
H  -0.5062007976356918 0.44803704179974035 -0.9147920578725123
6
Iteration 59 Energy -127.12260368823715 
O  0.057950842156826124 -1.4915057137268726 0.00036628915403624264
H  -1.0134105493242633 -1.6881961866733195 0.00012038098697048117
C  -0.0013965388190511764 0.0019775300487969326 0.0005698382190422532
H  -0.5061543527090034 0.4482376203440247 0.9158840407924784
H  1.069310249034139 0.3444877768457383 0.0004553572145783953
H  -0.5062316249930201 0.44808282872931154 -0.9148452724480833
6
Iteration 60 Energy -127.12260377181533 
O  0.0580709942062587 -1.4915995335221373 0.00036650407867304375
H  -1.0135308899292919 -1.688238807709989 0.00012048591403284766
C  -0.0013902677988912758 0.001991969449325392 0.0005702831206088217
H  -0.5061850956697224 0.448283571481101 0.9159379685612824
H  1.0693672407353363 0.3445188122170164 0.00045567821417746607
H  -0.5062624533276978 0.44812861702262013 -0.914898487286382
6
Iteration 61 Energy -127.12260383720621 
O  0.05819115036284587 -1.4916933540356145 0.0003667190196968497
H  -1.0136512292019284 -1.688281426866434 0.0001205908530752978
C  -0.00138399985747834 0.0020064077862589503 0.0005707280289495129
H  -0.5062158396142702 0.44832952400081805 0.9159918965956582
H  1.0694242321958518 0.34454984480958045 0.00045599920092262165
H  -0.5062932826396351 0.44817440668120534 -0.9149517023891622
6
Iteration 62 Energy -127.12260392077305 
O  0.05831131062572292 -1.4917871752702996 0.00036693397563537545
H  -1.013771567145971 -1.6883240441456977 0.00012069580326124018
C  -0.0013777349937153485 0.0020208450597090353 0.0005711729443612514
H  -0.5062465845431463 0.44837547790414134 0.9160458248972612
H  1.0694812234172926 0.34458087462361325 0.0004563201750982613
H  -0.5063241129287845 0.44822019770591415 -0.9150049177581424
6
Iteration 63 Energy -127.12260398764809 
O  0.05843147499831472 -1.4918809972244749 0.00036714894819074936
H  -1.0138919037647527 -1.6883666595506606 0.00012080076546720433
C  -0.001371473208292885 0.002035281271161787 0.0005716178679094651
H  -0.5062773304576841 0.4484214331928945 0.9160997534680994
H  1.0695382144009207 0.34461190166069255 0.00045664113665734905
H  -0.506354944196506 0.4482659900979742 -0.9150581333936068
6
Iteration 64 Energy -127.1226040494066 
O  0.0585516434819065 -1.4919748198996288 0.0003673639378858056
H  -1.0140122390617317 -1.6884092730841453 0.0001209057397046293
C  -0.0013652144988445581 0.0020497164207971016 0.0005720627985287
H  -0.5063080773579736 0.44846738986807094 0.9161536823085046
H  1.069595205148575 0.34464292592159596 0.0004569620862363243
H  -0.5063857764422133 0.448311783858239 -0.9151113492975398
6
Iteration 65 Energy -127.12260414606695 
O  0.058671816076049474 -1.4920686432981 0.00036757894340582164
H  -1.0141325730409083 -1.6884518847493026 0.00012101072543742604
C  -0.0013589588655247811 0.002064150508794476 0.000572507736886578
H  -0.5063388252442269 0.4485133479304434 0.9162076114200872
H  1.0696521956617322 0.3446739474063887 0.00045728302345309657
H  -0.5064166096666106 0.4483575789879575 -0.9151645654713256
6
Iteration 66 Energy -127.1226042089322 
O  0.0587919927845524 -1.492162467419304 0.0003677939650075686
H  -1.01425290570484 -1.6884944945488254 0.00012111572279676055
C  -0.0013527063062431458 0.002078583536146543 0.0005729526821367255
H  -0.5063695741165628 0.44855930738095035 0.9162615408038157
H  1.0697091859427978 0.34470496611671936 0.00045760394852323966
H  -0.5064474438697968 0.4484033754882665 -0.9152177819158797
6
Iteration 67 Energy -127.12260427141436 
O  0.05891217360781606 -1.4922562922637936 0.00036800900326184417
H  -1.0143732370579501 -1.6885371024855158 0.00012122073192465737
C  -0.0013464568200650252 0.002093015503692226 0.0005733976342083617
H  -0.5064003239752831 0.44860526822103175 0.9163154704607427
H  1.0697661759934673 0.3447359820533697 0.00045792486108981394
H  -0.5064782790509755 0.44844917336024903 -0.9152709986327976
6
Iteration 68 Energy -127.12260435136304 
O  0.05903235854695231 -1.4923501178338008 0.00036822405768830943
H  -1.0144935671031712 -1.6885797085626113 0.00012132575273529388
C  -0.0013402104072168125 0.0021074464116084585 0.0005738425951364419
H  -0.5064310748210816 0.44865123045168254 0.9163694003937012
H  1.0698231658144508 0.34476699521721116 0.0004582457617291813
H  -0.50650911521185 0.44849497260499216 -0.915324215621865
6
Iteration 69 Energy -127.12260444365036 
O  0.05915254760468083 -1.492443944128833 0.00036843912860669113
H  -1.0146138958435225 -1.688622312782703 0.00012143078537246016
C  -0.0013339670654923122 0.002121876260967605 0.000574287563264414
H  -0.506461826653659 0.4486971940739947 0.9164233306025082
H  1.0698801554081707 0.344798005609439 0.00045856664964261616
H  -0.5065399523523244 0.44854077322346997 -0.9153774328862495
6
Iteration 70 Energy -127.12260449160877 
O  0.05927274078175674 -1.4925377711497423 0.0003686542161367351
H  -1.0147342232832026 -1.6886649151488182 0.00012153583000889519
C  -0.0013277267950228926 0.0021363050521740665 0.0005747325389164008
H  -0.5064925794731332 0.44874315908880724 0.9164772610890086
H  1.0699371447763149 0.3448290132304458 0.00045888752540693286
H  -0.5065707904733467 0.44858657521703593 -0.9154306504261004
6
Iteration 71 Energy -127.1226045628398 
O  0.05939293807863304 -1.4926315988979566 0.0003688693199886387
H  -1.0148545494257768 -1.688707515663732 0.00012164088644863556
C  -0.0013214895940864672 0.0021507327857910315 0.0005751775214364424
H  -0.5065233332800938 0.44878912549767247 0.9165311918538788
H  1.0699941339206311 0.34486001808114 0.0004592083884534849
H  -0.5066016295746394 0.44863237858665933 -0.9154838682429793
6
Iteration 72 Energy -127.1226046420478 
O  0.059513139497963115 -1.492725427373824 0.0003690844403804335
H  -1.014974874273983 -1.6887501143303574 0.00012174595453285549
C  -0.0013152554619029917 0.0021651594628280734 0.0005756225113696397
H  -0.5065540880751794 0.4488350933015614 0.9165851228985034
H  1.0700511228423735 0.3448910201624206 0.00045952923975741203
H  -0.506632469656411 0.44867818333350346 -0.9155370863387642
6
Iteration 73 Energy -127.1226047277827 
O  0.05963334504154246 -1.4928192565769185 0.00036929957736113206
H  -1.0150951978313945 -1.6887927111514718 0.00012185103457774096
C  -0.001309024398067096 0.0021795850844673966 0.0005760675086120775
H  -0.5065848438587971 0.4488810625019616 0.9166390542244834
H  1.0701081115433677 0.34492201947570483 0.00045985007804409965
H  -0.5066633107194355 0.448723989458837 -0.9155903047140673
6
Iteration 74 Energy -127.12260480989376 
O  0.05975355470897347 -1.4929130865111362 0.00036951473085074384
H  -1.0152155201019541 -1.6888353061302468 0.00012195612643301177
C  -0.0013027964008124379 0.002194009649247582 0.0005765125140954571
H  -0.5066156006305981 0.4489270330989926 0.9166929858332771
H  1.070165100025609 0.3449530160208318 0.00046017090439407
H  -0.5066941527635748 0.44876979696301494 -0.9156435233693447
6
Iteration 75 Energy -127.12260487894537 
O  0.059873768503593744 -1.4930069171748805 0.00036972990007720326
H  -1.0153358410882913 -1.6888778992692728 0.0001220612296989173
C  -0.0012965714692475792 0.0022084331594950522 0.0005769575262349947
H  -0.5066463583912029 0.44897300509414056 0.9167469177250149
H  1.070222088290762 0.34498400979941374 0.0004604917179343645
H  -0.5067249957891485 0.44881560584768726 -0.9156967423076041
6
Iteration 76 Energy -127.12260499010674 
O  0.05999398642704384 -1.4931007485682652 0.0003699450864350521
H  -1.015456160794002 -1.6889204905714488 0.0001221663450393497
C  -0.0012903496032675562 0.002222855616100071 0.0005774025464948625
H  -0.50667711714126 0.4490189784886878 0.9168008499024254
H  1.0702790763401946 0.3450150008126051 0.0004608125195796383
H  -0.5067558397969686 0.44886141611400543 -0.9157499615287179
6
Iteration 77 Energy -127.1226050424325 
O  0.06011420847824706 -1.4931945806946398 0.00037016028852678414
H  -1.0155764792232818 -1.6889630800398197 0.00012227147188748205
C  -0.0012841308014907011 0.002237277018280206 0.0005778475734195932
H  -0.506707876880679 0.44906495328347573 0.9168547823655548
H  1.0703360641756707 0.34504598906031325 0.0004611333084566101
H  -0.5067866847869499 0.4489072277627726 -0.9158031810342107
6
Iteration 78 Energy -127.12260514706982 
O  0.06023443466097016 -1.493288413552195 0.0003703755069261632
H  -1.0156967963787353 -1.6890056676770342 0.00012237661045823647
C  -0.0012779150634152395 0.0022516973679765776 0.0005782926077036484
H  -0.5067386376100852 0.4491109294798753 0.9169087151161703
H  1.0703930517984892 0.34507697454449876 0.00046145408465876094
H  -0.5068175307597856 0.44895304079541143 -0.915856400826002
6
Iteration 79 Energy -127.12260489282777 
O  0.06035466497488368 -1.4933822471440446 0.00037059074154865865
H  -1.015817112264319 -1.6890482534861515 0.00012248176052931676
C  -0.0012717023875484798 0.0022661166647003498 0.0005787376504845492
H  -0.5067693993295502 0.4491569070787498 0.9169626481557092
H  1.0704500392105762 0.3451079572650116 0.0004617748494033391
H  -0.5068483777151412 0.4489988552125639 -0.915909620903978
6
Iteration 80 Energy -127.12260463277396 
O  0.06047489929818835 -1.493476081768092 0.00037080567008648184
H  -1.0159374268731307 -1.6890908375091058 0.00012258679198828062
C  -0.0012654927679930233 0.0022805347889437643 0.000579182655364427
H  -0.5068001619704476 0.44920288598629393 0.9170165814684755
H  1.0705070263853163 0.3451389371606642 0.00046209555176171465
H  -0.5068792256667657 0.4490446709922341 -0.915962841218892
6
Iteration 81 Energy -127.12260471926653 
O  0.06059513811671934 -1.493569917254589 0.00037102059174948075
H  -1.016057739955219 -1.68913341974564 0.00012269182572863512
C  -0.0012592861346415556 0.002294951794229798 0.0005796276647007769
H  -0.5068309255716296 0.449248866224903 0.9170705150415499
H  1.0705640133421523 0.3451699143163333 0.0004624162383368474
H  -0.5069100745772023 0.4490904880904213 -0.9160160617904561
6
Iteration 82 Energy -127.12260478175153 
O  0.06071538107103345 -1.4936637534773387 0.0003712355293768237
H  -1.0161780517773382 -1.6891760001625185 0.00012279687087939122
C  -0.001253082560230947 0.0023093677486460532 0.0005800726813003554
H  -0.5068616901634616 0.4492948478690936 0.9171244489068364
H  1.070621000093607 0.3452008887110702 0.00046273691285599896
H  -0.5069409244700841 0.4491363065764546 -0.9160692826524632
6
Iteration 83 Energy -127.12260491398906 
O  0.06083562816402956 -1.4937575904350602 0.0003714504847154647
H  -1.016298362342559 -1.6892185787624654 0.0001229019283664907
C  -0.0012468820446089515 0.002323782653578243 0.0005805177062999779
H  -0.5068924557467352 0.44934083092047705 0.9171783830661865
H  1.070677986641179 0.3452318603462726 0.0004630575754190298
H  -0.506971775347061 0.4491821264513942 -0.9161225038057759
6
Iteration 84 Energy -127.12260498955054 
O  0.06095587939588412 -1.4938514281297188 0.00037166545605345685
H  -1.0164186716544605 -1.6892611555483983 0.00012300699749449694
C  -0.0012406845867168376 0.0023381965091085915 0.0005809627379060962
H  -0.5069232223214718 0.4493868153797034 0.9172323175199809
H  1.070734972986301 0.34526282922244395 0.0004633782250321529
H  -0.5070026272084232 0.44922794771633556 -0.9161757252529164
6
Iteration 85 Energy -127.12260504480771 
O  0.0610761347683082 -1.4939452665624287 0.00037188044375428153
H  -1.0165389797163025 -1.6893037305231522 0.00012311207838021777
C  -0.001234490184941988 0.0023526093157183233 0.0005814077771338753
H  -0.5069539898876422 0.4494328012475099 0.9172862522696918
H  1.0707919591309385 0.3452937953405136 0.0004636988621385383
H  -0.5070334800539285 0.44927377037242927 -0.9162289469939657
6
Iteration 86 Energy -127.12260511456594 
O  0.06119639428311671 -1.4940391057322897 0.00037209544836730885
H  -1.0166592865315427 -1.689346303689465 0.00012321717115534766
C  -0.001228298839429136 0.002367021074724634 0.0005818528245207449
H  -0.5069847584463477 0.4494787885254061 0.9173401873171452
H  1.0708489450766092 0.34532475870185736 0.0004640194876060815
H  -0.5070643338845748 0.44931959442093683 -0.9162821690301378
6
Iteration 87 Energy -127.12260518576858 
O  0.06131665794206342 -1.494132945640668 0.0003723104700170737
H  -1.0167795921031229 -1.689388875050197 0.00012332227591399416
C  -0.0012221105485470416 0.0023814317864960187 0.0005822978785592759
H  -0.5070155279974015 0.4495247772146079 0.9173941226625301
H  1.0709059308246376 0.3453557193068298 0.00046434010054006313
H  -0.5070951887001767 0.4493654198624116 -0.9163353913640655
6
Iteration 88 Energy -127.12260526570874 
O  0.06143692574467072 -1.494226786289345 0.00037252550797808875
H  -1.016899896435074 -1.6894314446082783 0.0001234273922843113
C  -0.0012159253120010332 0.0023958414515697084 0.0005827429412561467
H  -0.5070462985412515 0.44957076731613704 0.917448058308279
H  1.0709629163766319 0.3453866771562584 0.00046466070189566766
H  -0.5071260445011467 0.44941124669845306 -0.9163886139949259
6
Iteration 89 Energy -127.12260532605688 
O  0.061557197694110506 -1.4943206276779335 0.0003727405624477186
H  -1.0170201995301904 -1.689474012366417 0.0001235325205386014
C  -0.0012097431282501003 0.0024102500704057846 0.0005831880111081124
H  -0.5070770700779601 0.44961675883067664 0.9175019942549787
H  1.0710199017346866 0.3454176322510906 0.00046498129064600287
H  -0.5071569012880692 0.44945707492982184 -0.9164418369248165
6
Iteration 90 Energy -127.12260539437068 
O  0.0616774737912338 -1.494414469807542 0.00037295563351925887
H  -1.017140501391849 -1.6895165783273922 0.00012363766055824117
C  -0.0012035639960399488 0.002424657643780346 0.0005836330887690295
H  -0.5071078426076239 0.4496627517594688 0.917555930503585
H  1.0710768869004146 0.34544858459259653 0.0004653018669507256
H  -0.5071877590605635 0.44950290455755393 -0.9164950601552816
6
Iteration 91 Energy -127.12260548446156 
O  0.06179775403597206 -1.494508312680312 0.00037317072100739965
H  -1.0172608020241944 -1.6895591424943472 0.00012374281234978424
C  -0.0011973879156883499 0.002439064171729114 0.0005840781743200123
H  -0.5071386161302615 0.44970874610315814 0.9176098670558391
H  1.0711338718750036 0.34547953418069416 0.000465622431420063
H  -0.5072186178194162 0.449548735582577 -0.9165482836867174
6
Iteration 92 Energy -127.12260557019361 
O  0.061918038431950095 -1.4946021562939604 0.0003733858256327439
H  -1.01738110142965 -1.689601704869551 0.00012384797619211435
C  -0.0011912148850061228 0.0024534696560632187 0.0005845232674543161
H  -0.5071693906467211 0.44975474186373504 0.9176638039126213
H  1.0711908566609787 0.34551048101704657 0.00046594298352280444
H  -0.5072494775646931 0.4495945680062697 -0.9166015075207248
6
Iteration 93 Energy -127.12260562253924 
O  0.06203832697854705 -1.4946960006521617 0.00037360094766396675
H  -1.0175013996122027 -1.6896442654563357 0.00012395315211286782
C  -0.0011850449041899463 0.0024678740961037687 0.0005849683685316325
H  -0.5072001661574518 0.44980073904108686 0.9177177410751258
H  1.071247841258878 0.3455414251018333 0.00046626352347204383
H  -0.5072803382968032 0.4496404018291964 -0.9166547316589877
6
Iteration 94 Energy -127.12260572641604 
O  0.06215861967867733 -1.4947898457536941 0.00037381608628622476
H  -1.0176216965745275 -1.6896868242571093 0.0001240583397646634
C  -0.001178877971086773 0.0024822774934299 0.0005854134773000169
H  -0.5072309426622506 0.4498467376370416 0.9177716785448427
H  1.0713048256710576 0.3455723664363746 0.0004665840516749481
H  -0.5073112000156289 0.44968623705289307 -0.9167079561019463
6
Iteration 95 Energy -127.12260578748214 
O  0.06227891653360757 -1.4948836915996147 0.00037403124146981694
H  -1.0177419923200148 -1.6897293812748264 0.00012416353936488508
C  -0.0011727140854304015 0.002496679848134108 0.0005858585935943306
H  -0.5072617201615668 0.4498927376525588 0.917825616322686
H  1.0713618098986213 0.34560330502164327 0.00046690456680252145
H  -0.5073420627221726 0.4497320736782217 -0.916761180850897
6
Iteration 96 Energy -127.12260590154372 
O  0.06239921754325963 -1.494977538191842 0.000374246413245656
H  -1.017862286852418 -1.6897719365124646 0.00012426875055336915
C  -0.001166553247003574 0.0025110811607795885 0.0005863037177144072
H  -0.5072924986562665 0.44993873908846715 0.9178795544095756
H  1.0714187939431454 0.3456342408580202 0.00046722507014461173
H  -0.5073729264164153 0.44977791170585 -0.9168144059076806
6
Iteration 97 Energy -127.12260596552707 
O  0.06251952271059298 -1.4950713855296605 0.0003744616015821025
H  -1.0179825801744555 -1.6898144899724754 0.00012437397364733251
C  -0.0011603954532366154 0.002525481432399986 0.0005867488490872443
H  -0.5073232781455317 0.4499847419456135 0.9179334928068497
H  1.071475777807072 0.345665173946875 0.000467545560654931
H  -0.5074037910984276 0.44982375113745426 -0.9168676312728433
6
Iteration 98 Energy -127.1226059778572 
O  0.0626398320369147 -1.4951652336133237 0.00037467680667127557
H  -1.0181028722896412 -1.689857041657796 0.00012447920856131938
C  -0.0011542407047791408 0.002539880663678367 0.0005871939885150614
H  -0.507354058630626 0.4500307462255719 0.9179874315160175
H  1.0715327614912338 0.34569610428913583 0.00046786603892533506
H  -0.5074346567689088 0.4498695919738983 -0.9169208569475588
6
Iteration 99 Energy -127.12260608615526 
O  0.0627601455141087 -1.4952590824374192 0.00037489201921179485
H  -1.0182231631963907 -1.689899591571462 0.00012458446324272587
C  -0.0011480890228313934 0.002554278858660149 0.0005876391224524372
H  -0.5073848401139367 0.4500767519253882 0.9180413705347589
H  1.0715897449823293 0.3457270318892456 0.00046818648864253474
H  -0.5074655235218245 0.44991543421446284 -0.9169740829643771
6
Iteration 100 Energy -127.12260617408093 
O  0.06288046315326568 -1.4953529320085037 0.00037510724893754436
H  -1.0183434529025064 -1.6899421397158876 0.0001246897297366577
C  -0.0011419403837946444 0.0025686760148976744 0.0005880842645340715
H  -0.5074156225935496 0.4501227590502213 0.918095309867888
H  1.0716467282972766 0.3457579567443787 0.00046850692647179543
H  -0.5074963912627514 0.4499612778619367 -0.9170273092936156
6
Iteration 101 Energy -127.12260622856056 
O  0.06300078495481146 -1.4954467823284454 0.00037532249530713795
H  -1.0184637414117101 -1.6899846860939627 0.00012479500798041337
C  -0.0011357947864882544 0.0025830721323223857 0.0005885294147145045
H  -0.5074464060692 0.4501687676009195 0.9181492495165816
H  1.071703711437388 0.34578887885503723 0.0004688273523203831
H  -0.5075272599924583 0.4500071229171333 -0.9170805359357403
6
Iteration 102 Energy -127.12260628526784 
O  0.06312111091919069 -1.495540633399271 0.0003755377580264713
H  -1.0185840287275936 -1.6900272307085833 0.00012490029803996456
C  -0.0011296522296562201 0.0025974672109204218 0.0005889745720366076
H  -0.5074771905401999 0.4502147775777059 0.9182031894815336
H  1.0717606944045999 0.34581979822155473 0.00046914776559157185
H  -0.5075581297112636 0.45005296938099915 -0.9171337628921457
6
Iteration 103 Energy -127.12260639062879 
O  0.06324144104910061 -1.4956344852191894 0.000375753038285954
H  -1.0187043148527635 -1.6900697735622834 0.00012500560008307866
C  -0.0011235127131946725 0.0026118612526222617 0.000589419737653491
H  -0.5075079760084527 0.450260788982542 0.9182571297643529
H  1.0718176772003496 0.3458507148457057 0.0004694681671959771
H  -0.5075890004196273 0.4500988172549238 -0.9171869901646749
6
Iteration 104 Energy -127.12260644512261 
O  0.06336177534478646 -1.4957283377910582 0.000375968334986951
H  -1.018824599790994 -1.6901123146580483 0.0001251109139268032
C  -0.0011173762354354986 0.002626254256835839 0.0005898649104593698
H  -0.5075387624731628 0.4503068018157132 0.9183110703654637
H  1.071874659826455 0.34588162872771255 0.0004697885560874205
H  -0.5076198721177287 0.45014466653955687 -0.9172402177535706
6
Iteration 105 Energy -127.12260606847025 
O  0.06348211380911015 -1.4958221911132261 0.00037618364910628715
H  -1.0189448835448904 -1.6901548539984441 0.00012521623989734677
C  -0.0011112427962664843 0.002640646225457672 0.0005903100916065758
H  -0.5075695499355253 0.4503528160790045 0.9183650112872632
H  1.071931642284172 0.3459125398690576 0.0004701089328348918
H  -0.5076507448062048 0.4501905172363222 -0.9172934456600361
6
Iteration 106 Energy -127.12260616295117 
O  0.06360245644195113 -1.4959160451873392 0.00037639897947260644
H  -1.0190651661182568 -1.6901973915862065 0.00012532157739033676
C  -0.0011051123941750876 0.0026550371586827252 0.0005907552807241837
H  -0.5076003383952032 0.4503988317732194 0.918418952530305
H  1.0719886245752077 0.3459434482702188 0.00047042929725838405
H  -0.5076816184847938 0.45023636934619904 -0.9173466738861565
6
Iteration 107 Energy -127.1226062465038 
O  0.06372280324436223 -1.496009900015098 0.0003766143272957909
H  -1.0191854475145674 -1.6902399274244262 0.00012542692695499845
C  -0.0010989850293152655 0.002669427056321938 0.000591200477987389
H  -0.5076311278530382 0.45044484889917824 0.9184728940957639
H  1.072045606700909 0.34597435393156306 0.00047074964985488173
H  -0.5077124931542512 0.4502822228698239 -0.9173999024319354
6
Iteration 108 Energy -127.12260630682643 
O  0.06384315421863847 -1.4961037555960683 0.0003768296917294287
H  -1.0193057277367052 -1.6902824615155194 0.0001255322882329045
C  -0.0010928606991377047 0.002683815919462867 0.0005916456830671572
H  -0.5076619183086426 0.4504908674577939 0.9185268359846971
H  1.0721025886634112 0.346005256854351 0.00047106999026752717
H  -0.5077433688142762 0.4503280778085019 -0.917453131298902
6
Iteration 109 Energy -127.12260641144388 
O  0.0639635093667683 -1.4961976119308644 0.0003770450740442754
H  -1.019426006787363 -1.6903249938623128 0.00012563766164139548
C  -0.0010867394030521563 0.00269820374857689 0.0005920908952688856
H  -0.5076927097627318 0.4505368874501642 0.9185807781980548
H  1.0721595704638585 0.3460361570394517 0.00047139031881066263
H  -0.5077742454649858 0.45037393416299415 -0.9175063604893241
6
Iteration 110 Energy -127.12260648193708 
O  0.06408386868792874 -1.4962914690212128 0.0003772604723558859
H  -1.019546284670701 -1.6903675244677603 0.00012574304666993007
C  -0.0010806211415791494 0.002712590544610376 0.0005925361153952675
H  -0.5077235022154777 0.45058290887727853 0.9186347207375889
H  1.072216552103201 0.3460670544876853 0.0004717106345094487
H  -0.5078051231077073 0.4504197919348468 -0.9175595900029114
6
Iteration 111 Energy -127.12260655462389 
O  0.06420423218505712 -1.4963853268664526 0.00037747588780892664
H  -1.0196665613896094 -1.6904100533343709 0.00012584844357473553
C  -0.0010745059125430027 0.0027269763079122364 0.0005929813442544164
H  -0.5077542956669375 0.45062893174017976 0.9186886636047388
H  1.072273533584046 0.3460979491996308 0.00047203093859282756
H  -0.5078360017418967 0.45046565112453807 -0.9176128198409076
6
Iteration 112 Energy -127.12260666068293 
O  0.06432459985906372 -1.496479185467388 0.0003776913200162536
H  -1.0197868369469953 -1.6904525804649382 0.00012595385218875862
C  -0.001068393715821438 0.0027413610393515813 0.0005934265806050038
H  -0.5077850901177648 0.4506749560402243 0.9187426067999546
H  1.07233051490759 0.34612884117641074 0.0004723512306383778
H  -0.5078668813683125 0.4505115117332957 -0.9176660500055206
6
Iteration 113 Energy -127.12260672536154 
O  0.06444497171086076 -1.4965730448254506 0.00037790676905796115
H  -1.019907111346251 -1.6904951058621687 0.00012605927264169414
C  -0.0010622845494064701 0.0027557447392632783 0.0005938718246697452
H  -0.5078158855675385 0.4507209817780285 0.918796550324635
H  1.0723874960758728 0.3461597304185039 0.00047267151036814973
H  -0.5078977619864515 0.4505573737622059 -0.9177192804968926
6
Iteration 114 Energy -127.12260637604547 
O  0.06456534774159856 -1.4966669049413326 0.00037812223636073046
H  -1.0200273845910277 -1.690537629528935 0.00012616470556661328
C  -0.0010561784131662031 0.0027701274080210725 0.0005943170770967538
H  -0.5078466820164408 0.45076700895459126 0.9188504941798146
H  1.0724444770901607 0.3461906169266325 0.0004729917780860505
H  -0.5079286435969506 0.45060323721192036 -0.9177725113162082
6
Iteration 115 Energy -127.12260645814517 
O  0.06468572795309072 -1.4967607658155364 0.00037833772039686615
H  -1.0201476566839056 -1.6905801514678978 0.0001262701503318185
C  -0.0010500753057679517 0.0027845090462975744 0.0005947623359235691
H  -0.5078774794649734 0.4508130375705657 0.9189044383660395
H  1.0725014579519383 0.34622150070204544 0.00047331203262763696
H  -0.5079595262000556 0.4506491020835057 -0.9178257424660865
6
Iteration 116 Energy -127.12260650249961 
O  0.06480611234668787 -1.4968546274482095 0.00037855322187188887
H  -1.0202679276282483 -1.6906226716817003 0.0001263756070535598
C  -0.001043975226204117 0.0027988896549924003 0.0005952076029526288
H  -0.5079082779135576 0.45085906762761324 0.9189583828848896
H  1.0725584386627294 0.3462523817453144 0.0004736322753943566
H  -0.507990409795879 0.4506949683782275 -0.91787897394638
6
Iteration 117 Energy -127.12260658458513 
O  0.06492650092386339 -1.4969484898394387 0.0003787687397901016
H  -1.0203881974272542 -1.6906651901731036 0.00012648107538552842
C  -0.0010378781743790888 0.002813269234784363 0.0005956528791471476
H  -0.5079390773625847 0.450905099126567 0.9190123277389288
H  1.0726154192242303 0.346283260057509 0.0004739525067132206
H  -0.5080212943853077 0.4507408360970915 -0.9179322057573466
6
Iteration 118 Energy -127.12260665000439 
O  0.06504689368448892 -1.4970423529917172 0.000378984274370852
H  -1.0205084660842685 -1.6907077069448972 0.00012658655533092844
C  -0.0010317841485940054 0.0028276477857250154 0.0005960981622090286
H  -0.5079698778119609 0.45095113206816034 0.9190662729273701
H  1.0726723996380312 0.3463141356388409 0.000474272725724323
H  -0.5080521799676582 0.45078670524088243 -0.9179854379019936
6
Iteration 119 Energy -127.12260670742111 
O  0.06516729063188281 -1.4971362169035127 0.0003791998267770808
H  -1.020628733602071 -1.6907502219997133 0.0001266920474635797
C  -0.0010256931485760957 0.002842025309218228 0.0005965434540281807
H  -0.5080006792626494 0.45099716645400695 0.9191202184522739
H  1.0727293799053317 0.3463450084910883 0.000474592932554092
H  -0.508083066543896 0.4508325758106056 -0.9180386703801466
6
Iteration 120 Energy -127.1226067401208 
O  0.06528769176566114 -1.4972300815767208 0.00037941539596609853
H  -1.0207489999845452 -1.6907927353402852 0.00012679755133852597
C  -0.0010196051728979146 0.002856401805424189 0.0005969887530288847
H  -0.5080314817142063 0.45104320228437816 0.9191741643143386
H  1.0727863600279988 0.34637587861470837 0.00047491312681473784
H  -0.5081139541133953 0.45087844780749886 -0.9180919031933801
6
Iteration 121 Energy -127.12260687744647 
O  0.06540809708726507 -1.4973239470123865 0.0003796309822802339
H  -1.0208692652342573 -1.690835246969447 0.00012690306707237875
C  -0.0010135202212020712 0.0028707772744777397 0.0005974340602463398
H  -0.5080622851671794 0.4510892395605721 0.9192281105153195
H  1.0728433400073865 0.3464067460099886 0.00047523330899005846
H  -0.5081448426771722 0.45092432123207987 -0.9181451363431786
6
Iteration 122 Energy -127.12260698280744 
O  0.06552850659825188 -1.4974178132105653 0.0003798465858679979
H  -1.0209895293545743 -1.6908777568897606 0.00012700859469918263
C  -0.0010074382918833428 0.00288515171750449 0.0005978793753082307
H  -0.5080930896215952 0.45113527828367284 0.9192820570553079
H  1.072900319845396 0.3464376106780697 0.0004755534788890634
H  -0.5081757322350067 0.4509701960857329 -0.9181983698302401
6
Iteration 123 Energy -127.12260703513887 
O  0.06564892029986448 -1.4975116801718569 0.0003800622071072696
H  -1.0211097923487267 -1.6909202651040425 0.00012711413447225676
C  -0.001001359384843535 0.002899525134967396 0.0005983246992553526
H  -0.5081238950782014 0.45118131845466763 0.9193360039368207
H  1.07295729954292 0.3464684726200696 0.0004758736366429122
H  -0.5082066227877585 0.4510160723691135 -0.9182516036550435
6
Iteration 124 Energy -127.12260709980328 
O  0.06576933819295552 -1.4976055478968702 0.0003802778452121958
H  -1.021230054219955 -1.6909627716148818 0.0001272196857844413
C  -0.000995283498731832 0.0029138975277386674 0.000598770030296415
H  -0.5081547015369853 0.4512273600743165 0.9193899511595989
H  1.0730142791018713 0.34649933183626713 0.00047619378297511495
H  -0.5082375143352275 0.45106195008362576 -0.9183048378202912
6
Iteration 125 Energy -127.12260718192 
O  0.06588976028001747 -1.4976994163852821 0.0003804935007797208
H  -1.021350314970869 -1.6910052764248096 0.0001273252492320634
C  -0.0009892106318431177 0.002928268896419208 0.0005992153694665492
H  -0.5081855089976206 0.45127340314368614 0.9194438987262722
H  1.0730712585243989 0.34653018832789645 0.00047651391695664757
H  -0.508268406877625 0.4511078292300789 -0.9183580723259569
6
Iteration 126 Energy -127.12260721899555 
O  0.06601018656004819 -1.4977932856402318 0.00038070917342159215
H  -1.0214705746055237 -1.6910477795369876 0.00012743082470854561
C  -0.0009831407847275839 0.0029426392407014747 0.0005996607164472892
H  -0.5082163174600564 0.45131944766332993 0.9194978466369996
H  1.0731282378110945 0.3465610420951943 0.00047683403836178015
H  -0.5082993004156154 0.4511537098095242 -0.9184113071730183
6
Iteration 127 Energy -127.12260729310408 
O  0.06613061703631705 -1.4978871556600095 0.0003809248636476704
H  -1.0215908331263024 -1.6910902809537034 0.00012753641212451486
C  -0.0009770739552955217 0.002957008561990486 0.0006001060717508322
H  -0.508247126925228 0.45136549363480555 0.9195517948927913
H  1.0731852169642722 0.34659189313954775 0.00047715414787718124
H  -0.5083301949489919 0.4511995918226404 -0.9184645423633637
6
Iteration 128 Energy -127.12260735340966 
O  0.06625105170970523 -1.4979810264454345 0.0003811405707686616
H  -1.0217110905364866 -1.691132780677806 0.00012764201129938127
C  -0.0009710101437655444 0.0029713768609287393 0.000600551435168791
H  -0.5082779373937263 0.45141154105912185 0.9196057434952117
H  1.0732421959846696 0.3466227414616821 0.00047747424515966034
H  -0.5083610904785709 0.45124547527068953 -0.9185177778976612
6
Iteration 129 Energy -127.12260743988806 
O  0.06637149058106297 -1.4980748979980008 0.0003813562947895295
H  -1.0218313468392404 -1.6911752787119518 0.0001277476222738682
C  -0.0009649493482078082 0.00298574413757698 0.0006009968060633535
H  -0.5083087488651753 0.45145758993676616 0.9196596924449508
H  1.0732991748745042 0.3466535870621159 0.00047779433009152787
H  -0.5083919870041336 0.4512913601544724 -0.9185710137769931
6
Iteration 130 Energy -127.12260750745835 
O  0.0664919336511662 -1.4981687703176019 0.000381572036665091
H  -1.0219516020379202 -1.6912177750588269 0.00012785324529830533
C  -0.0009588915689248513 0.0030001103931163423 0.0006014421851459598
H  -0.5083395613406525 0.4515036402695011 0.9197136417429808
H  1.0733561536346663 0.3466844299418314 0.00047811440293592976
H  -0.5084228845262382 0.4513372464751925 -0.9186242500030352
6
Iteration 131 Energy -127.12260758593989 
O  0.06661238092134696 -1.498262643405638 0.00038178779512510125
H  -1.022071856135575 -1.6912602697211188 0.000127958879998297
C  -0.0009528368039237216 0.003014475627577393 0.000601887571185939
H  -0.5083703748195433 0.4515496920574172 0.9197675913907529
H  1.0734131322670877 0.34671527010142894 0.00047843446338673656
H  -0.5084537830448724 0.4513831342335018 -0.9186774865766116
6
Iteration 132 Energy -127.12260770730308 
O  0.06673283239284036 -1.498356517262364 0.0003820035705081787
H  -1.0221921091353616 -1.691302762701536 0.0001280645264177444
C  -0.0009467850529736119 0.003028839841769837 0.0006023329661438846
H  -0.5084011893024583 0.45159574530210495 0.919821541389699
H  1.0734701107730615 0.34674610754172547 0.0004787545119897884
H  -0.5084846825604347 0.45142902343063346 -0.9187307234977844
6
Iteration 133 Energy -127.12260778941696 
O  0.06685328806816224 -1.4984503918873793 0.00038221936391016686
H  -1.0223123610395792 -1.6913452540025458 0.0001281701848986754
C  -0.0009407363143710685 0.003043203036924888 0.0006027783698196329
H  -0.5084320047895876 0.45164180000424425 0.9198754917413419
H  1.0735270891545807 0.3467769422640839 0.00047907454933051273
H  -0.508515583072773 0.4514749140674261 -0.9187839607687449
6
Iteration 134 Energy -127.1226078533549 
O  0.06697374794636343 -1.4985442672831888 0.0003824351751612689
H  -1.0224326118526246 -1.691387743627216 0.00012827585555858132
C  -0.0009346905886482199 0.0030575652122315786 0.0006032237817812994
H  -0.5084628212815002 0.4516878561646231 0.9199294424461876
H  1.073584067412346 0.3468077742684805 0.00047939457431290573
H  -0.5085464845826609 0.45152080614457113 -0.9188371983899676
6
Iteration 135 Energy -127.12260791803634 
O  0.06709421203091274 -1.498638143448761 0.0003826510024507039
H  -1.02255286157638 -1.6914302315778562 0.00012838153761856458
C  -0.0009286478732736006 0.0030719263691484783 0.0006036692008924636
H  -0.5084936387776364 0.45173391378429645 0.9199833935048358
H  1.073641045548686 0.3468386035560484 0.00047971458676223684
H  -0.5085773870899665 0.4515666996634798 -0.9188904363630823
6
Iteration 136 Energy -127.12260802409538 
O  0.06721468032146384 -1.4987320203844945 0.00038286684785540133
H  -1.0226731102145585 -1.6914727178571476 0.00012848723186719088
C  -0.0009226081687222493 0.0030862865087467866 0.0006041146285122363
H  -0.5085244572790074 0.4517799728649773 0.9200373449190733
H  1.0736980235647764 0.3468694301277879 0.0004800345872489971
H  -0.5086082905952823 0.4516125946250868 -0.9189436746894153
6
Iteration 137 Energy -127.12260813090644 
O  0.06733515281924798 -1.4988258980922904 0.000383082710556984
H  -1.0227933577703867 -1.6915152024678388 0.00012859293813236968
C  -0.0009165714728445976 0.003100645630693103 0.000604560063343557
H  -0.5085552767850201 0.4518260334068372 0.9200912966890956
H  1.073755001462197 0.346900253984266 0.00048035457469921823
H  -0.5086391950983534 0.45165849102997 -0.9189969133697979
6
Iteration 138 Energy -127.12260821447896 
O  0.06745562952582214 -1.4989197765721616 0.00038329859118135047
H  -1.0229136042466265 -1.6915576854125403 0.0001286986564750096
C  -0.0009105377850640694 0.0031150037360563694 0.0006050055068442821
H  -0.5085860972964814 0.45187209541099244 0.9201452488169649
H  1.0738119792425536 0.3469310751263664 0.0004806745505183154
H  -0.5086701005994707 0.45170438887937836 -0.9190501524046311
6
Iteration 139 Energy -127.12260826751984 
O  0.06757611044174217 -1.499013655825577 0.0003835144887394785
H  -1.0230338496466171 -1.6916001666940776 0.0001288043866349987
C  -0.000904507104961255 0.0031293608250310724 0.000605450958587631
H  -0.5086169188127522 0.45191815887808445 0.9201992013037079
H  1.073868956906485 0.34696189355489554 0.000480994513995919
H  -0.50870100709906 0.451750288174231 -0.919103391795693
6
Iteration 140 Energy -127.1226083590892 
O  0.06769659556900218 -1.4991075358519264 0.0003837304050281897
H  -1.0231540939731887 -1.6916426463148755 0.00012891012914766745
C  -0.000898479431002627 0.0031437168985047077 0.0006058964184512874
H  -0.5086477413348535 0.4519642238093912 0.9202531541501419
H  1.0739259344567555 0.34699270927047526 0.00048131446598279775
H  -0.508731914596837 0.45179618891522855 -0.9191566315440245
6
Iteration 141 Energy -127.1226084179305 
O  0.06781708490893107 -1.499201416651336 0.0003839463376402723
H  -1.0232743372295061 -1.6916851242776911 0.00012901588326179415
C  -0.0008924547635617812 0.0031580719572836214 0.0006063418861079751
H  -0.5086785648632031 0.452010290205888 0.9203071073574973
H  1.0739829118937683 0.3470235222742295 0.0004816344051825751
H  -0.5087628230943334 0.4518420911038452 -0.9192098716503959
6
Iteration 142 Energy -127.12260851747969 
O  0.06793757846199636 -1.499295298225144 0.00038416228687412587
H  -1.0233945794186956 -1.6917276005850532 0.00012912164890892033
C  -0.0008864331004270965 0.0031724260014911513 0.0006067873612274853
H  -0.5087093893974116 0.4520563580681161 0.9203610609265054
H  1.0740398892199636 0.3470543325664862 0.0004819543321469148
H  -0.5087937325907544 0.4518879947407429 -0.9192631121168249
6
Iteration 143 Energy -127.12260857924389 
O  0.06805807622963968 -1.4993891805738855 0.00038437825444960093
H  -1.023514820543799 -1.6917700752397717 0.00012922742682979619
C  -0.0008804144417531975 0.0031867790316005874 0.0006072328456948824
H  -0.5087402149385558 0.4521024273976549 0.9204150148589211
H  1.0740968664361852 0.34708514014821795 0.00048227424731234046
H  -0.5088246430868194 0.4519338998266333 -0.9193163529428835
6
Iteration 144 Energy -127.12260863231315 
O  0.06817857821416463 -1.4994830636972116 0.0003845942395526526
H  -1.0236350606073001 -1.6918125482442412 0.00012933321667680842
C  -0.0008743987854646315 0.0032011310489222103 0.0006076783382419264
H  -0.508771041486072 0.4521484981950857 0.9204689691556429
H  1.074153843544696 0.347115945020317 0.0004825941506579542
H  -0.508855554582154 0.45197980636280133 -0.9193695941302493
6
Iteration 145 Energy -127.12260902896332 
O  0.06829908441469909 -1.4995769475973497 0.00038481024173897527
H  -1.023755299613169 -1.6918550196013926 0.00012943901812128623
C  -0.0008683861318579668 0.00321548205299297 0.000608123838842357
H  -0.5088018690407229 0.4521945704612433 0.9205229238174358
H  1.0742108205461658 0.34714674718313293 0.0004829140418238852
H  -0.508886467076695 0.4520257143498036 -0.9194228356806423
6
Iteration 146 Energy -127.122609112533 
O  0.06841959513743566 -1.4996708321330137 0.000385026646226332
H  -1.0238755374162365 -1.6918974893071972 0.0001295449836480175
C  -0.0008623764383642253 0.003229832092181942 0.0006085693997418604
H  -0.5088326976541977 0.4522406442400047 0.9205768788302475
H  1.0742677974575092 0.34717754669537865 0.00048323397931033374
H  -0.5089173805264336 0.45207162374790844 -0.9194760776212544
6
Iteration 147 Energy -127.12260919466675 
O  0.06854011007842391 -1.499764717446883 0.000385243067936301
H  -1.0239957741677668 -1.6919399573709715 0.00012965096093997202
C  -0.0008563697458149556 0.003244181119460212 0.0006090149693750549
H  -0.5088635272750186 0.4522867194894521 0.9206308342105143
H  1.0743247742645312 0.34720834350000246 0.00048355390477113877
H  -0.5089482949766316 0.4521175345987658 -0.9195293199258935
6
Iteration 148 Energy -127.12260925787822 
O  0.06866062924120167 -1.499858603536821 0.000385459507438159
H  -1.0241160098696873 -1.6919824237948773 0.00012975695019183214
C  -0.0008503660520856433 0.003258529136412779 0.0006094605462458303
H  -0.5088943579033981 0.45233279621064265 0.9206847899589472
H  1.0743817509695002 0.3472391375987166 0.0004838738179284798
H  -0.5089792104272062 0.452163446903779 -0.9195825625972579
6
Iteration 149 Energy -127.1226093552338 
O  0.06878115262508742 -1.4999524904054964 0.0003856759657422725
H  -1.0242362445260276 -1.6920248885819853 0.00012986295180830338
C  -0.0008443653577572583 0.0032728761423962915 0.0006099061327487839
H  -0.5089251895399024 0.45237887440445895 0.9207387460774636
H  1.0744387275732943 0.3472699289911834 0.00048419371962965123
H  -0.5090101268787147 0.45220936066325157 -0.9196358056346302
6
Iteration 150 Energy -127.12260941411483 
O  0.06890168023146483 -1.5000463780535038 0.00038589244169881
H  -1.024356478139274 -1.6920673517347151 0.00012996896536894632
C  -0.0008383676605861262 0.0032872221383428335 0.0006103517269691426
H  -0.5089560221840502 0.4524249540718633 0.920792702566424
H  1.0744957040779033 0.3473007176783196 0.0004845136090831346
H  -0.509041044330707 0.45225527587837916 -0.9196890490397331
6
Iteration 151 Energy -127.12260950202631 
O  0.06902221206172625 -1.5001402664802446 0.00038610893428723587
H  -1.0244767107126151 -1.692109813255675 0.0001300749904618297
C  -0.0008323729609086745 0.003301567125383908 0.0006107973289593987
H  -0.5089868558365992 0.45247103521373044 0.9208466594266177
H  1.0745526804843577 0.3473315036614722 0.00048483348575920575
H  -0.509071962784393 0.4523011925504376 -0.919742292814319
6
Iteration 152 Energy -127.12260958269009 
O  0.06914274811722483 -1.5002341556865095 0.000386325444117188
H  -1.0245969422490218 -1.6921522731474161 0.0001301810273808682
C  -0.0008263812567977653 0.003315911103563915 0.000611242939027576
H  -0.5090176904973065 0.4525171178306971 0.9209006166600788
H  1.0746096567945518 0.34736228694095944 0.0004851533502343714
H  -0.5091028822394728 0.45234711068016253 -0.9197955369585442
6
Iteration 153 Energy -127.12260967566415 
O  0.06926328839815966 -1.5003280456736703 0.0003865419716078357
H  -1.024717172751961 -1.6921947314126997 0.0001302870763099115
C  -0.0008203925479732222 0.003330254073458829 0.0006116885571522046
H  -0.5090485261660369 0.4525632019237075 0.9209545742669825
H  1.0746666330098231 0.3473930675175157 0.00048547320230906863
H  -0.5091338026961539 0.452393030268331 -0.9198487814737457
6
Iteration 154 Energy -127.12260977085168 
O  0.0693838329065246 -1.5004219364412952 0.0003867585176059165
H  -1.0248374022237772 -1.692237188053909 0.00013039313733483778
C  -0.0008144068328636375 0.003344596036058524 0.0006121341837644322
H  -0.5090793628435333 0.4526092874944881 0.9210085322485243
H  1.0747236091316372 0.34742384539197513 0.00048579304289945145
H  -0.5091647241541704 0.45243895131587764 -0.9199020263615009
6
Iteration 155 Energy -127.12260982248219 
O  0.06950438164298069 -1.5005158279906532 0.00038697508117637683
H  -1.0249576306677775 -1.6922796430738931 0.00013049921023500368
C  -0.0008084241116416475 0.00335893699160383 0.0006125798194072617
H  -0.5091102005301901 0.45265537454318994 0.9210624906067693
H  1.0747805851612229 0.3474546205648746 0.00048611287182666194
H  -0.509195646614454 0.45248487382379166 -0.9199552716216006
6
Iteration 156 Energy -127.12260987116707 
O  0.06962493460866345 -1.5006097203215218 0.00038719166241219226
H  -1.025077858087125 -1.6923220964750343 0.00013060529508414248
C  -0.0008024443827089367 0.003373276940644722 0.0006130254632432501
H  -0.5091410392260358 0.4527014630709868 0.9211164493423678
H  1.074837561100366 0.34748539303744563 0.0004864326886001278
H  -0.5092265700769822 0.4525307977929509 -0.9200085172556707
6
Iteration 157 Energy -127.12260994746069 
O  0.06974549180582502 -1.5007036134338554 0.00038740826121351854
H  -1.0251980844842141 -1.6923645482599448 0.0001307113917147811
C  -0.000796467645483106 0.003387615884042556 0.000613471115479801
H  -0.5091718789315237 0.45274755307869496 0.9211704084560806
H  1.0748945369504 0.3475161628102914 0.00048675249337376715
H  -0.5092574945420932 0.4525767232243416 -0.92006176326553
6
Iteration 158 Energy -127.1226100041169 
O  0.06986605323305514 -1.5007975073307214 0.0003876248773486046
H  -1.0253183098628411 -1.6924069984313679 0.00013081750014700574
C  -0.000790493898547715 0.0034019538214934207 0.0006139167748362715
H  -0.5092027196463156 0.45279364456701715 0.9212243679481484
H  1.074951512712813 0.3475469298838587 0.00048707228553846864
H  -0.5092884200095141 0.4526226501187581 -0.9201150096517209
6
Iteration 159 Energy -127.122610081889 
O  0.06998661889388451 -1.5008914020099018 0.0003878415125099628
H  -1.0254385342252172 -1.6924494469917486 0.00013092362098858523
C  -0.0007845231419262589 0.0034162907548699927 0.0006143624431072866
H  -0.5092335613714469 0.4528397375376397 0.921278327820572
H  1.0750084883888669 0.3475776942595028 0.0004873920659726082
H  -0.5093193464799117 0.45266857847734204 -0.9201682564149227
6
Iteration 160 Energy -127.12261018579701 
O  0.07010718878902895 -1.5009852974725475 0.00038805816530885665
H  -1.0255587575742928 -1.6924918939435654 0.00013102975362253835
C  -0.0007785553734672394 0.0034306266842736586 0.0006148081199268231
H  -0.5092644041063488 0.4528858319911017 0.9213322880740121
H  1.0750654639806374 0.34760845593774986 0.00048771183439171907
H  -0.50935027395298 0.45271450830084164 -0.920221503556726
6
Iteration 161 Energy -127.1226103187525 
O  0.07022776291784018 -1.501079193720794 0.0003882748357725572
H  -1.0256789799138788 -1.6925343392897725 0.0001311358979998733
C  -0.0007725905939314975 0.0034449616095251303 0.0006152538052275725
H  -0.5092952478518593 0.45293192792803444 0.9213862487099135
H  1.0751224394884498 0.3476392149186414 0.00048803159155986884
H  -0.5093812024294231 0.4527604395901623 -0.9202747510776088
6
Iteration 162 Energy -127.12261040449874 
O  0.07034834128348506 -1.5011730907530492 0.0003884915234183174
H  -1.0257992012461472 -1.692576783032568 0.00013124205425419733
C  -0.0007666288011180595 0.003459295532141752 0.0006156994981674135
H  -0.5093260926075712 0.45297802534968895 0.9214402097286655
H  1.0751794149144793 0.34766997120429705 0.0004883513353402029
H  -0.5094121319094845 0.4528063723463883 -0.9203279989788612
6
Iteration 163 Energy -127.1226104851228 
O  0.0704689238850454 -1.5012669885720995 0.000388708230068158
H  -1.0259194215745497 -1.6926192251748953 0.00013134822284439625
C  -0.0007606699952935058 0.00347362845160948 0.0006161451993077134
H  -0.5093569383743969 0.4530241242567005 0.9214941711316639
H  1.0752363902597617 0.3477007247940901 0.0004886710673499739
H  -0.5094430623932434 0.452852306569764 -0.920381247262092
6
Iteration 164 Energy -127.12261054546812 
O  0.07058951072595854 -1.5013608871762572 0.00038892495290582333
H  -1.0260396409013344 -1.6926616657189364 0.0001314544027654861
C  -0.0007547141739638322 0.0034879603694909773 0.0006165909084555008
H  -0.5093877851513883 0.45307022464958036 0.921548132920158
H  1.0752933655266885 0.34773147568967 0.0004889907868537122
H  -0.5094739938807019 0.45289824226197983 -0.9204344959275637
6
Iteration 165 Energy -127.12261062029461 
O  0.07071010180567888 -1.5014547865666124 0.0003891416949182091
H  -1.026159859230322 -1.6927041046675018 0.0001315605950510295
C  -0.0007487613381584872 0.003502291286142491 0.0006170366271259116
H  -0.509418632940246 0.45311632653029527 0.9216020950951306
H  1.0753503407155616 0.3477622238915059 0.0004893104949900862
H  -0.5095049263725907 0.45294417942355103 -0.9204877449760159
6
Iteration 166 Energy -127.12261068206732 
O  0.07083069712539794 -1.5015486867451484 0.0003893584542151495
H  -1.0262800765638107 -1.692746542023158 0.0001316667990501883
C  -0.0007428114853430748 0.0035166212010342302 0.0006174823536509165
H  -0.5094494817397773 0.4531624298986122 0.921656057657583
H  1.075407315828684 0.34779296939974197 0.0004896301908805621
H  -0.50953585986843 0.4529901180549696 -0.9205409944094509
6
Iteration 167 Energy -127.12261078525171 
O  0.07095129668708537 -1.5016425877101522 0.000389575231338278
H  -1.0264002929047922 -1.6927889777883178 0.00013177301497151563
C  -0.0007368646157354473 0.0035309501163344288 0.0006179280884494049
H  -0.5094803315510797 0.4532085347561411 0.9217100206086717
H  1.0754642908670027 0.3478237122160334 0.0004899498745729364
H  -0.509566794368809 0.4530360581580404 -0.9205942442281901
6
Iteration 168 Energy -127.12261085718082 
O  0.07107190049002465 -1.5017364894641492 0.00038979202558845954
H  -1.0265205082567486 -1.6928314119656327 0.00013187924259114948
C  -0.000730920727652319 0.0035452780316860056 0.0006183738312731701
H  -0.5095111823735281 0.45325464110356883 0.9217639839491102
H  1.0755212658320283 0.3478544523409047 0.0004902695459080728
H  -0.5095977298737835 0.4530819997330522 -0.9206474944332054
6
Iteration 169 Energy -127.12261091748924 
O  0.07119250853733781 -1.5018303920057718 0.0003900088382920916
H  -1.0266407226219754 -1.6928738445576015 0.00013198548230511841
C  -0.0007249798208001042 0.0035596049480071733 0.0006188195825979619
H  -0.5095420342074974 0.4533007489416703 0.9218179476800307
H  1.075578240725085 0.3478851897749429 0.0004905892057209841
H  -0.5096286663836672 0.4531279427813028 -0.9207007450264746
6
Iteration 170 Energy -127.12261100540071 
O  0.07131312082920475 -1.5019242953361644 0.0003902256698620839
H  -1.026760936003911 -1.6929162755667744 0.00013209173439188276
C  -0.0007190418938863864 0.0035739308656518396 0.0006192653428784107
H  -0.5095728870535354 0.4533468582713475 0.9218719118028467
H  1.0756352155477427 0.34791592451900977 0.0004909088535084352
H  -0.509659603898517 0.4531738873033107 -0.9207539960078035
6
Iteration 171 Energy -127.1226110257646 
O  0.07143373736588851 -1.5020181994569561 0.0003904425185403417
H  -1.0268811484054188 -1.6929587049959076 0.0001321979981003814
C  -0.0007131069468180541 0.003588255784800723 0.0006197111118951867
H  -0.5096037409117327 0.4533929690934547 0.9219258763185794
H  1.0756921903011707 0.3479466565734709 0.0004912284893707733
H  -0.5096905424188563 0.45321983329999654 -0.9208072473781013
6
Iteration 172 Energy -127.12261111658479 
O  0.07155435814947933 -1.502112104367176 0.00039065938468633976
H  -1.0270013598290375 -1.693001132847248 0.00013230427357359656
C  -0.0007071749778139129 0.003602579706621076 0.0006201568881318161
H  -0.5096345957821515 0.4534390814086459 0.9219798412274705
H  1.0757491649872641 0.34797738593955446 0.0004915481125426178
H  -0.5097214819444789 0.4532657807726456 -0.9208604991399686
6
Iteration 173 Energy -127.12261120306319 
O  0.0716749831814401 -1.5022060100667867 0.000390876270051723
H  -1.0271215702775829 -1.6930435591233943 0.00013241056142361226
C  -0.0007012459867394366 0.0036169026319386862 0.0006206026738899658
H  -0.5096654516656037 0.45348519521879316 0.9220338065314152
H  1.0758061396071492 0.34800811261794895 0.0004918677243284781
H  -0.5097524224758515 0.45331172972181694 -0.9209137512931191
6
Iteration 174 Energy -127.12261125175942 
O  0.07179561246172549 -1.502299916557666 0.00039109317326265646
H  -1.0272417797541904 -1.6930859838268961 0.00013251686122767718
C  -0.0006953199718141865 0.0036312245607781663 0.000621048467594128
H  -0.5096963085615459 0.4535313105239936 0.922087772230939
H  1.075863114162747 0.3480388366091644 0.0004921873238435051
H  -0.5097833640128563 0.45335768014847644 -0.9209670038386432
6
Iteration 175 Energy -127.12261132803602 
O  0.0719162459911954 -1.5023938238400723 0.0003913100935860046
H  -1.0273619882620646 -1.6931284069604293 0.00013262317262359964
C  -0.0006893969334318704 0.0036455454937716 0.0006214942694361267
H  -0.5097271664706386 0.4535774273252612 0.9221417383271748
H  1.0759200886543874 0.3480695579140242 0.0004925069109256634
H  -0.5098143065562373 0.4534036320533126 -0.92102025677835
6
Iteration 176 Energy -127.12261141814109 
O  0.07203688377166065 -1.5024877319147443 0.0003915270328007644
H  -1.027482195803672 -1.6931708285264992 0.00013272949622710983
C  -0.0006834768697221384 0.0036598654309908363 0.0006219400799881995
H  -0.509758025392918 0.4536235456236541 0.9221957048206305
H  1.0759770630841226 0.3481002765328428 0.0004928264864519066
H  -0.5098452501054587 0.4534495854371612 -0.9210735101123121
6
Iteration 177 Energy -127.12261153365844 
O  0.07215752580394447 -1.5025816407808423 0.0003917439892303671
H  -1.0276024023822894 -1.693213248527513 0.00013283583151475154
C  -0.0006775597806424845 0.003674184373806817 0.0006223858989776078
H  -0.5097888853287296 0.45366966541983383 0.9222496717133424
H  1.0760340374532327 0.34813099246698165 0.0004931460498001232
H  -0.5098761946616295 0.45349554030122824 -0.9211267638417661
6
Iteration 178 Energy -127.12261157654292 
O  0.0722781720894849 -1.5026755504390747 0.0003919609639452735
H  -1.0277226080001458 -1.6932556669659211 0.00013294217878778077
C  -0.0006716456644828482 0.0036885023228462018 0.000622831725680954
H  -0.5098197462780996 0.4537157867150828 0.922303639005117
H  1.0760910117632114 0.3481617057174538 0.0004934656008921208
H  -0.5099071402241764 0.4535414966463409 -0.9211800179687898
6
Iteration 179 Energy -127.12261166156837 
O  0.0723988226284801 -1.502769460890884 0.0003921779569754889
H  -1.0278428126605983 -1.693298083844478 0.00013304853807901952
C  -0.0006657345212248905 0.0037028192781125542 0.000623277561212236
H  -0.509850608241478 0.45376190950999085 0.9223576066976729
H  1.0761479860151903 0.34819241628427205 0.0004937851402816952
H  -0.5099380867936769 0.4535874544734004 -0.9212332724929968
6
Iteration 180 Energy -127.12261176763026 
O  0.07251947742292585 -1.5028633721362903 0.00039239496736289965
H  -1.0279630163660807 -1.693340499165547 0.0001331549091394769
C  -0.0006598263487971596 0.003717135240168725 0.0006237234048376144
H  -0.5098814712182899 0.4538080338049361 0.9224115747922776
H  1.0762049602111319 0.3482231241686746 0.0004941046671597342
H  -0.5099690343699556 0.4536334137830433 -0.9212865274156948
6
Iteration 181 Energy -127.12261183812346 
O  0.07264013647244484 -1.5029572841761492 0.00039261199649375867
H  -1.028083219120237 -1.6933829129318165 0.00013326129226704916
C  -0.0006539211479074344 0.0037314502095563504 0.0006241692578350786
H  -0.5099123352098004 0.45385415960156283 0.9224655432895027
H  1.07626193435171 0.3482538293707928 0.0004944241824830514
H  -0.5099999829534405 0.45367937457605456 -0.9213397827379785
6
Iteration 182 Energy -127.1226118897114 
O  0.07276079977927305 -1.5030511970107674 0.0003928290444028973
H  -1.028203420925322 -1.6934253251455964 0.00013336768760757996
C  -0.0006480189156030133 0.003745764186590389 0.0006246151189679685
H  -0.5099432002150317 0.45390028689989115 0.9225195121904151
H  1.076318908439519 0.3482845318917746 0.0004947436856013378
H  -0.5100309325430352 0.4537253368532492 -0.9213930384607889
6
Iteration 183 Energy -127.12261203210818 
O  0.07288146734487218 -1.5031451106394347 0.00039304611005344046
H  -1.0283236217840768 -1.6934677358094894 0.00013347409466980912
C  -0.0006421196529109119 0.0037600771724414696 0.0006250609888172837
H  -0.5099740662351931 0.4539464157015856 0.9225734814964798
H  1.0763758824746004 0.34831523173210704 0.00049506317728781
H  -0.5100618831405334 0.4537713006160825 -0.921446294584916
6
Iteration 184 Energy -127.12261210403729 
O  0.07300213916894466 -1.5032390250636145 0.0003932631941969847
H  -1.028443821699668 -1.693510144925906 0.00013358051380599483
C  -0.0006362233579178341 0.003774389167443531 0.000625506866302165
H  -0.5100049332699088 0.4539925460074209 0.9226274512074839
H  1.076432856459101 0.34834592889271604 0.0004953826564263081
H  -0.5100928347453844 0.4538172658648909 -0.9214995511126679
6
Iteration 185 Energy -127.12261216943384 
O  0.073122815252719 -1.5033329402836892 0.0003934802959895856
H  -1.0285640206751745 -1.6935525524975044 0.00013368694469207602
C  -0.0006303300306110999 0.003788700172060283 0.0006259527527947869
H  -0.5100358013195152 0.45403867781773755 0.9226814213255353
H  1.0764898303941852 0.34837662337412223 0.0004957021238812498
H  -0.5101237873584867 0.4538632326007767 -0.9215528080434267
6
Iteration 186 Energy -127.12261219487166 
O  0.07324349559710311 -1.5034268563010864 0.00039369741585161566
H  -1.0286842187130922 -1.6935949585267758 0.0001337933875036173
C  -0.0006244396690994117 0.003803010186226422 0.0006263986479345411
H  -0.5100666703838755 0.45408481113362376 0.9227353918512291
H  1.0765468042813235 0.34840731517685 0.0004960215791815437
H  -0.5101547409792374 0.45390920082421804 -0.92160606537834
6
Iteration 187 Energy -127.12261226972086 
O  0.07336418020439137 -1.5035207731138374 0.00039391455372513544
H  -1.0288044158160203 -1.693637363016092 0.00013389984231315132
C  -0.0006185522737248632 0.0038173192118044954 0.0006268445516655075
H  -0.5100975404631177 0.4541309459557548 0.9227893627862007
H  1.0766037781216484 0.3484380043024556 0.0004963410224522562
H  -0.5101856956088877 0.4539551705367851 -0.921659323119301
6
Iteration 188 Energy -127.12261236055524 
O  0.07348486907403956 -1.5036146907241301 0.0003941317100050008
H  -1.0289246119874196 -1.693679765967991 0.00013400630928313094
C  -0.0006126678426064792 0.0038316272482095274 0.0006272904633792441
H  -0.5101284115574655 0.45417708228527354 0.9228433341306286
H  1.0766607519167417 0.3484686907511966 0.0004966604530326171
H  -0.510216651246713 0.4540011417387162 -0.9217125812667273
6
Iteration 189 Energy -127.12261245645789 
O  0.07360556220718499 -1.5037086091322067 0.0003943488849499179
H  -1.0290448072299117 -1.6937221673850495 0.00013411278837445944
C  -0.0006067863757852766 0.0038459342964159786 0.0006277363841551951
H  -0.5101592836677051 0.4542232201233316 0.9228973058860113
H  1.0767177256677531 0.34849937452379165 0.0004969798719492604
H  -0.5102476078932726 0.45404711443093265 -0.921765839821076
6
Iteration 190 Energy -127.12261249353344 
O  0.0737262596059269 -1.503802528337412 0.0003945660782834667
H  -1.0291650015458946 -1.6937645672696178 0.0001342192794531407
C  -0.0006009078720662532 0.0038602403573057497 0.0006281823135937517
H  -0.5101901567936996 0.45426935947042757 0.9229512780530758
H  1.076774699376298 0.3485300556211477 0.0004972992789387348
H  -0.5102785655487152 0.4540930886145836 -0.9218190987844175
6
Iteration 191 Energy -127.12261256835424 
O  0.07384696127083361 -1.503896448340639 0.0003947832890882016
H  -1.0292851949383994 -1.6938069656241723 0.00013432578212190663
C  -0.0005950323302151967 0.003874545431423336 0.0006286282503002546
H  -0.510221030935628 0.45431550032747325 0.9230052506320353
H  1.076831673043529 0.348560734043682 0.0004976186737944924
H  -0.5103095242130051 0.4541390642907232 -0.9218723581576094
6
Iteration 192 Energy -127.12261265337402 
O  0.07396766720187645 -1.5039903691437082 0.0003950005184703737
H  -1.0294053874106026 -1.693849362451472 0.00013443229692131772
C  -0.0005891597501754802 0.0038888495181396876 0.0006290741971418847
H  -0.5102519060936433 0.4543616426952713 0.9230592236253264
H  1.076888646670841 0.34859140979174863 0.0004979380571952153
H  -0.5103404838868185 0.45418504145944066 -0.9219256179400385
6
Iteration 193 Energy -127.12261273547941 
O  0.0740883774008095 -1.504084290746092 0.0003952177665199439
H  -1.029525578964874 -1.693891757753717 0.00013453882383083717
C  -0.000583290129878318 0.003903152618873576 0.0006295201517054392
H  -0.5102827822676178 0.4544077865743689 0.9231131970328479
H  1.0769456202600418 0.3486220828665147 0.0004982574282547094
H  -0.5103714445694486 0.4542310201217858 -0.9219788781348078
6
Iteration 194 Energy -127.1226128212143 
O  0.07420909186810261 -1.5041782131485224 0.00039543503307257443
H  -1.029645769604317 -1.693934151533535 0.00013464536278992784
C  -0.0005774234694659114 0.003917454734022686 0.0006299661155110863
H  -0.5103136594582227 0.4544539319661748 0.9231671708561336
H  1.0770025938119558 0.34865275326859585 0.0004985767874939608
H  -0.5104024062616761 0.4542770002786461 -0.9220321387412682
6
Iteration 195 Energy -127.12261286991054 
O  0.0743298106055743 -1.5042721363498741 0.00039565231709886146
H  -1.0297659593315687 -1.6939765437931005 0.00013475191344000347
C  -0.0005715597672648364 0.003931755864725182 0.0006304120870613736
H  -0.5103445376650293 0.45450007887115823 0.9232211450958033
H  1.0770595673286683 0.34868342099891314 0.000498896134332206
H  -0.5104333689634454 0.4543229819315978 -0.9220853997612046
6
Iteration 196 Energy -127.12261296363661 
O  0.0744505336139612 -1.504366060351986 0.0003958696196196157
H  -1.0298861481491612 -1.6940189345352368 0.00013485847611347277
C  -0.0005656990235095135 0.0039460560107988495 0.0006308580672890734
H  -0.5103754168889496 0.45454622729025357 0.9232751197528681
H  1.0771165408104928 0.34871408605813015 0.0004992154689546336
H  -0.5104643326752665 0.45436896508072244 -0.9221386611957831
6
Iteration 197 Energy -127.12261305735986 
O  0.07457126089363192 -1.5044599851555398 0.00039608694041191406
H  -1.030006336060291 -1.6940613237622688 0.00013496505079668773
C  -0.000559841236170066 0.003960355172546993 0.0006313040568117595
H  -0.510406297129404 0.454592377224099 0.9233290948291336
H  1.0771735142593613 0.34874474844692815 0.0004995347917201952
H  -0.5104952973969402 0.4544149497267603 -0.9221919230449301
6
Iteration 198 Energy -127.12261313726879 
O  0.0746919924456904 -1.5045539107605965 0.00039630427980423235
H  -1.0301265230678565 -1.6941037114767727 0.00013507163738315408
C  -0.0005539864054732307 0.0039746533505695455 0.0006317500550816988
H  -0.5104371783874426 0.4546385286737827 0.9233830703245652
H  1.0772304876764751 0.3487754081654028 0.0004998541033156097
H  -0.5105262631288277 0.4544609358707218 -0.9222451853100123
6
Iteration 199 Energy -127.12261319615548 
O  0.07481272827150083 -1.5046478371670537 0.00039652163760388966
H  -1.0302467091741037 -1.6941460976809917 0.00013517823607182413
C  -0.0005481345296431457 0.003988950546031755 0.0006321960607984884
H  -0.5104680606624009 0.4546846816401871 0.923437046239903
H  1.0772874610632983 0.3488060652150257 0.0005001734019214247
H  -0.5105572298708908 0.45450692351362315 -0.9222984479932271
6
Iteration 200 Energy -127.12261329131464 
O  0.07493346837174712 -1.504741764375495 0.0003967390137370526
H  -1.0303668943820925 -1.6941884823775077 0.00013528484666321336
C  -0.0005422856085997934 0.004003246759207701 0.0006326420758605523
H  -0.5104989439548959 0.45473083612406595 0.9234910225770885
H  1.0773444344212675 0.3488367195962447 0.0005004926891454501
H  -0.510588197623601 0.4545529126562675 -0.9223517110940181
6
Iteration 201 Energy -127.12261338796078 
O  0.07505421274758757 -1.5048356923861497 0.00039695640766616115
H  -1.0304870786945446 -1.69423086556869 0.0001353914691038214
C  -0.000536439640889822 0.004017541990987193 0.0006330880985607397
H  -0.5105298282647509 0.45477699212625644 0.9235449993361201
H  1.077401407751754 0.348867371310024 0.0005008119636230392
H  -0.5106191663870363 0.4545989032995029 -0.9224049746139212
6
Iteration 202 Energy -127.12261346425157 
O  0.07517496139936035 -1.5049296212004524 0.0003971738205982222
H  -1.0306072621142144 -1.6942732472571571 0.0001354981036289106
C  -0.0005305966260707006 0.004031836241052345 0.0006335341312453105
H  -0.5105607135925682 0.4548231496474359 0.9235989765190261
H  1.0774583810558207 0.34889802035659784 0.0005011312268662175
H  -0.5106501361612624 0.45464489544369674 -0.9224582385537727
6
Iteration 203 Energy -127.1226135340041 
O  0.07529571432928156 -1.5050235508167866 0.00039739125233152344
H  -1.0307274446437835 -1.6943156274452054 0.00013560475045073356
C  -0.0005247565636807018 0.0040461295107560215 0.0006339801727105902
H  -0.5105915999383742 0.4548693086887573 0.9236529541267418
H  1.077515354334766 0.3489286667372219 0.0005014504775646339
H  -0.5106811069467818 0.45469088909026606 -0.9225115029143002
6
Iteration 204 Energy -127.12261358851495 
O  0.07541647153645706 -1.5051174812380494 0.00039760870242316735
H  -1.030847626286341 -1.694358006135391 0.00013571140927063035
C  -0.0005189194519250136 0.004060421799777603 0.0006344262224169749
H  -0.510622487302054 0.4549154692504262 0.9237069321594839
H  1.0775723275903195 0.3489593104519457 0.0005017697160036193
H  -0.5107120787432226 0.4547368842397543 -0.9225647676964033
6
Iteration 205 Energy -127.12261367641223 
O  0.07553723302285285 -1.5052114124628388 0.0003978261709965026
H  -1.0309678070443027 -1.6944003833300687 0.00013581807998770982
C  -0.0005130852909159594 0.004074713109641456 0.0006348722811555453
H  -0.5106533756840292 0.4549616313339642 0.9237609106186185
H  1.0776293008234323 0.34898995150187123 0.0005020889430644407
H  -0.5107430515511578 0.45478288089322416 -0.9226180329016416
6
Iteration 206 Energy -127.12261375707602 
O  0.07565799879032467 -1.5053053444913866 0.00039804365800486224
H  -1.0310879869202412 -1.6944427590315696 0.00013592476267029928
C  -0.0005072540784006304 0.0040890034403209576 0.0006353183478870142
H  -0.5106842650842496 0.4550077949400456 0.9238148895043218
H  1.0776862740357382 0.3490205898878663 0.0005024081579919954
H  -0.5107740253703837 0.45482887905119906 -0.9226712985307662
6
Iteration 207 Energy -127.12261380648738 
O  0.07577876883797711 -1.5053992773254044 0.0003982611630541987
H  -1.0312081659176053 -1.694485133242608 0.000136031457073013
C  -0.000501425815088283 0.004103292792168176 0.0006357644237080812
H  -0.5107151555033898 0.45505396006920307 0.9238688688184372
H  1.0777432472279953 0.3490512256101446 0.0005027273614303857
H  -0.5108050002013712 0.45487487871459364 -0.9227245645840331
6
Iteration 208 Energy -127.12261387842217 
O  0.07589954316804043 -1.5054932109646533 0.00039847868728665767
H  -1.0313283440383683 -1.694527505965398 0.00013613816385268292
C  -0.0004956004986199179 0.004117581165760089 0.0006362105083690695
H  -0.5107460469400849 0.4551001267221157 0.9239228485617164
H  1.0778002204025245 0.34908185866959934 0.0005030465529520942
H  -0.5108359760438844 0.45492087988404284 -0.9227778310631922
6
Iteration 209 Energy -127.122613986672 
O  0.07602032178045326 -1.5055871454097494 0.0003986962293667583
H  -1.0314485212857054 -1.6945698772025182 0.0001362448823797036
C  -0.0004897781296174017 0.004131868561792233 0.0006366566015459522
H  -0.5107769393958524 0.4551462948999946 0.9239768287347637
H  1.0778571935598442 0.3491124890667754 0.0005033657320692487
H  -0.5108669528986026 0.4549668825607095 -0.922831097968839
6
Iteration 210 Energy -127.12261406878872 
O  0.07614110467642818 -1.5056810806610708 0.00039891378954661855
H  -1.031568697662261 -1.694612246956261 0.000136351612803569
C  -0.0004839587059149265 0.0041461549803895655 0.000637102702954735
H  -0.51080783287016 0.45519246460309326 0.924030809338851
H  1.077914166702042 0.34914311680240756 0.000503684898918101
H  -0.5108979307651691 0.4550128867452669 -0.9228843653017957
6
Iteration 211 Energy -127.12261414799957 
O  0.07626189185778083 -1.505775016717362 0.0003991313680321817
H  -1.031688873170498 -1.6946546152290172 0.0001364583551178368
C  -0.00047814222795160863 0.004160440423338859 0.0006375488129759454
H  -0.510838727363954 0.4552386358329854 0.92408479037448
H  1.0779711398295446 0.3491737418779069 0.0005040040534320963
H  -0.5109289096445297 0.45505889243878866 -0.9229376330638844
6
Iteration 212 Energy -127.12261425260284 
O  0.07638268332404585 -1.5058689535812544 0.0003993489656203654
H  -1.0318090478135908 -1.6946969820234477 0.00013656510961596098
C  -0.00047232869462002637 0.004174724889796753 0.0006379949322317418
H  -0.5108696228770695 0.45528480858985454 0.9241387718433804
H  1.0780281129440343 0.349204364292972 0.000504323196661837
H  -0.5109598895362507 0.4551048996415888 -0.9229909012546219
6
Iteration 213 Energy -127.12261433326663 
O  0.07650347907724182 -1.505962891251756 0.000399566581449152
H  -1.0319292215937574 -1.69473934734171 0.0001366718759758213
C  -0.00046651810430630136 0.004189008381024299 0.0006384410598922776
H  -0.5109005194095612 0.4553309828750552 0.9241927537458743
H  1.0780850860469433 0.34923498404861286 0.000504642327726882
H  -0.5109908704403663 0.4551509083547097 -0.9230441698756507
6
Iteration 214 Energy -127.12261440665436 
O  0.07662427911680618 -1.5060568297303707 0.00039978421724240265
H  -1.0320493945143123 -1.6947817111864325 0.00013677865482458705
C  -0.00046071045712684216 0.004203290897004351 0.0006388871970275036
H  -0.5109314169618843 0.45537715868922995 0.924246736083064
H  1.0781420591392263 0.349265601145417 0.0005049614473291745
H  -0.5110218523573419 0.45519691857859923 -0.9230974389280395
6
Iteration 215 Energy -127.12261448294231 
O  0.07674508344549819 -1.5061507690160956 0.0004000018712697642
H  -1.0321695665771442 -1.6948240735597833 0.00013688544554734666
C  -0.00045490575106267464 0.0042175724386859246 0.0006393333422800391
H  -0.5109623155337827 0.4554233360330291 0.9243007188557095
H  1.0781990322228916 0.3492962155843771 0.0005052805546880629
H  -0.511052835286951 0.4552429303145337 -0.92315070841256
6
Iteration 216 Energy -127.12261457014434 
O  0.07686589206354766 -1.5062447091094862 0.0004002195439262604
H  -1.032289737785488 -1.6948664344643638 0.00013699224834148654
C  -0.0004491039866862663 0.004231853006598473 0.0006397794965487488
H  -0.5109932151258486 0.4554695149074542 0.9243547020648907
H  1.078256005298153 0.3493268273665811 0.0005055996496510986
H  -0.5110838192298961 0.45528894356339217 -0.9232039783298029
6
Iteration 217 Energy -127.12261462609109 
O  0.07698670497102234 -1.5063386500123352 0.0004004372340827209
H  -1.0324099081418838 -1.6949087939025296 0.00013709906272218705
C  -0.0004433051617749961 0.0042461326008504064 0.0006402256586478623
H  -0.5110241157375323 0.45551569531254016 0.9244086857112316
H  1.078312978367173 0.34935743649210416 0.0005059187321294227
H  -0.5111148041860026 0.4553349583254957 -0.9232572486816382
6
Iteration 218 Energy -127.12261467113511 
O  0.07710752217012537 -1.5064325917231272 0.00040065494366855483
H  -1.032530077648849 -1.6949511518766125 0.00013720588932789447
C  -0.0004375092763502323 0.004260411222397066 0.0006406718305954605
H  -0.5110550173696767 0.4555618772502148 0.9244626697963326
H  1.0783699514312755 0.34938804296156517 0.0005062378034043448
H  -0.5111457901553834 0.4553809746018516 -0.9233105194677615
6
Iteration 219 Energy -127.12261470530194 
O  0.07722834365935799 -1.5065265342442957 0.0004008726721955348
H  -1.0326502463098566 -1.6949935083892438 0.00013731272798845798
C  -0.0004317163301805614 0.00427468887101445 0.0006411180111481357
H  -0.5110859200224294 0.45560806072048204 0.9245166543203708
H  1.0784269244910971 0.3494186467754041 0.0005065568627678136
H  -0.5111767771384464 0.455426992393385 -0.9233637906901814
6
Iteration 220 Energy -127.12261477794334 
O  0.0773491694265797 -1.5066204775576735 0.00040109043503361086
H  -1.0327704141174883 -1.6950358634384322 0.0001374195744312018
C  -0.00042592633423341555 0.004288965562737549 0.0006415641933082366
H  -0.5111168237446674 0.455654245815639 0.9245706392276375
H  1.0784838975384115 0.34944924793648474 0.0005068759127190103
H  -0.511207765126134 0.45547301169343485 -0.9234170623600629
6
Iteration 221 Energy -127.12261489783371 
O  0.07746999948812176 -1.5067144216799664 0.00040130821642974415
H  -1.0328905810838582 -1.6950782170307983 0.00013752643277515782
C  -0.0004201392756903609 0.004303241283607542 0.000642010384851564
H  -0.5111477284879519 0.45570043244532943 0.9246246245762918
H  1.0785408705840758 0.3494798464437566 0.0005071949511159138
H  -0.5112387541280262 0.4555190325103527 -0.92347033446717
6
Iteration 222 Energy -127.12261496977985 
O  0.07759083384262835 -1.506808366613969 0.0004015260167865526
H  -1.0330107472120107 -1.695120569168762 0.00013763330323988065
C  -0.00041435515255949573 0.004317516032907276 0.0006424565842075439
H  -0.5111786342515632 0.455746620610138 0.9246786103663099
H  1.0785978436299357 0.34951044229755024 0.0005075139769649284
H  -0.5112697441432769 0.45556505484419824 -0.9235236070137638
6
Iteration 223 Energy -127.12261504025035 
O  0.07771167249320575 -1.5069023123573797 0.00040174383569033814
H  -1.0331309125039758 -1.6951629198546125 0.00013774018568016983
C  -0.0004085739650677281 0.004331789812643573 0.0006429027928428126
H  -0.5112095410363771 0.4557928103112356 0.9247325965996117
H  1.0786548166769816 0.34954103549922666 0.0005078329908826419
H  -0.511300735173026 0.4556110786967802 -0.9235768799991937
6
Iteration 224 Energy -127.12261510637904 
O  0.07783251543948203 -1.5069962589124508 0.0004019616732240686
H  -1.0332510769628918 -1.6952052690907955 0.00013784708016684733
C  -0.0004027957111053702 0.004346062621863966 0.0006433490105353942
H  -0.5112404488418144 0.45583900154878326 0.9247865832770711
H  1.0787117897271317 0.34957162604851966 0.0005081519927019031
H  -0.511331727216714 0.4556571040681013 -0.9236301534243042
6
Iteration 225 Energy -127.12261517902328 
O  0.07795336268205032 -1.5070902062786704 0.00040217952993687293
H  -1.0333712405915167 -1.6952476168796775 0.00013795398667543015
C  -0.0003970203910639081 0.004360334462092438 0.0006437952373897871
H  -0.5112713576687296 0.4558851943240898 0.9248405703993179
H  1.0787687627808669 0.34960221394668056 0.0005084709831734679
H  -0.5113627202747002 0.45570313095933335 -0.9236834272911677
6
Iteration 226 Energy -127.1226152509524 
O  0.07807421422319337 -1.5071841544555937 0.00040239740525473144
H  -1.033491403392025 -1.6952899632236245 0.0001380609050994093
C  -0.00039124800404769324 0.004374605334023255 0.0006442414730437157
H  -0.5113022675173932 0.4559313886379379 0.9248945579670499
H  1.078825735839625 0.3496327991945352 0.0005087899618139848
H  -0.511393714347546 0.45574915937135224 -0.9237367015999263
6
Iteration 227 Energy -127.12261530400178 
O  0.07819507006218887 -1.5072781034453615 0.000402615299371251
H  -1.0336115653675515 -1.6953323081250566 0.00013816783564476207
C  -0.00038547854824727773 0.004388875237094923 0.00064468771701713
H  -0.5113331783871361 0.455977584490557 0.9249485459813732
H  1.0788827089049737 0.34966338179235307 0.0005091089280662811
H  -0.5114247094347432 0.45579518930453705 -0.9237899763515415
6
Iteration 228 Energy -127.12261539192745 
O  0.07831593020103628 -1.5073720532470962 0.0004028332128138468
H  -1.0337317265200603 -1.6953746515862824 0.00013827477837091706
C  -0.000379712023355686 0.004403144172565672 0.0006451339701864816
H  -0.511364090278512 0.4560237818833257 0.9250025344433193
H  1.0789396819779609 0.3496939617411535 0.0005094278826576469
H  -0.5114557055366817 0.45584122075990025 -0.9238432515472655
6
Iteration 229 Energy -127.12261543623364 
O  0.078436794639396 -1.5074660038622159 0.00040305114479713037
H  -1.0338518868528863 -1.6954169936097516 0.00013838173293402416
C  -0.00037394842829351814 0.004417412140296108 0.0006455802324036927
H  -0.5113950031913856 0.45606998081680467 0.9250565233535235
H  1.0789966550600496 0.3497245390410524 0.000509746825672477
H  -0.5114867026532467 0.45588725373798183 -0.9238965271874717
6
Iteration 230 Energy -127.12261550890626 
O  0.07855766337963789 -1.5075599552890604 0.00040326909529724307
H  -1.033972046368197 -1.695459334197751 0.00013848869954718722
C  -0.000368187763199799 0.004431679141937804 0.0006460265033868574
H  -0.5114259171264278 0.4561161812917765 0.9251105127133499
H  1.0790536281521772 0.3497551136933599 0.0005100657561165788
H  -0.5115177007855158 0.45593328824019674 -0.9239498032730538
6
Iteration 231 Energy -127.12261561934116 
O  0.0786785364220496 -1.5076539075285145 0.0004034870645930423
H  -1.0340922050685222 -1.6955016733524968 0.0001385956781496937
C  -0.000362430025938378 0.004445945177619791 0.0006464727824076217
H  -0.5114568320833203 0.45616238330926295 0.9251645025231332
H  1.079110601256238 0.34978568569861684 0.0005103846742408558
H  -0.5115486999326393 0.45597932426679083 -0.9240030798060737
6
Iteration 232 Energy -127.12261567673235 
O  0.07879941376642015 -1.5077478605820498 0.0004037050526579834
H  -1.0342123629570936 -1.6955440110765794 0.0001387026687754369
C  -0.0003566752164099887 0.004460210247360848 0.000646919070266752
H  -0.5114877480621235 0.45620858686962845 0.9252184927839661
H  1.0791675743731548 0.3498162550570759 0.0005107035804877256
H  -0.5115797000951452 0.4560253618187271 -0.9240563567862083
6
Iteration 233 Energy -127.12261574720853 
O  0.0789202954148945 -1.5078418144491552 0.000403923059979839
H  -1.0343325200359983 -1.6955863473723867 0.000138809671557386
C  -0.0003509233342367585 0.0044744743518488955 0.000647365367871916
H  -0.5115186650635459 0.4562547919737174 0.9252724834972298
H  1.0792245475042086 0.3498468217696484 0.0005110224751551229
H  -0.5116107012733453 0.45607140089653037 -0.9241096342140882
6
Iteration 234 Energy -127.12261581841118 
O  0.07904118136761172 -1.5079357691309174 0.00040414108529880454
H  -1.0344526763079778 -1.6956286822421753 0.0001389166862227581
C  -0.00034517437744705366 0.0044887374914902725 0.0006478116742903754
H  -0.5115495830862473 0.45630099862176227 0.9253264746633637
H  1.0792815206506627 0.34987738583709077 0.0005113413570403683
H  -0.5116417034672506 0.45611744150128025 -0.9241629120913134
6
Iteration 235 Energy -127.12261589615773 
O  0.0791620716248756 -1.508029724626916 0.0004043591301965456
H  -1.0345728317761238 -1.6956710156883232 0.00013902371321959355
C  -0.0003394283464739234 0.004502999667047843 0.0006482579894435362
H  -0.5115805021318597 0.45634720681537105 0.9253804662835851
H  1.0793384938133892 0.3499079472600161 0.0005116602269903914
H  -0.511672706677087 0.4561634836335706 -0.9242161904186245
6
Iteration 236 Energy -127.12261595938907 
O  0.07928296618806185 -1.5081236809387335 0.00040457719364429975
H  -1.0346929864424461 -1.6957133477131823 0.00013913075198715771
C  -0.00033368523871454993 0.004517260878386991 0.0006487043136331203
H  -0.5116114221994303 0.4563934165547061 0.9254344583584844
H  1.079395466994233 0.34993850603875554 0.000511979085754366
H  -0.5117037109019873 0.45620952729397496 -0.9242694691964225
6
Iteration 237 Energy -127.1226160603912 
O  0.07940386505888121 -1.5082176380642875 0.00040479527678939094
H  -1.034813140309402 -1.6957556783190144 0.00013923780300906358
C  -0.0003279450551026097 0.004531521126998752 0.0006491506467423111
H  -0.5116423432903267 0.4564396278415183 0.9254884508887706
H  1.079452440193933 0.3499690621744113 0.0005122979327046912
H  -0.5117347161431031 0.4562555724835052 -0.9243227484267842
6
Iteration 238 Energy -127.12261611412733 
O  0.07952476823665196 -1.5083115960052045 0.00040501337880834284
H  -1.0349332933802142 -1.6957980075082069 0.00013934486605103743
C  -0.00032220779442931213 0.00454578041299604 0.0006495969893286984
H  -0.5116732654042364 0.4564858406759528 0.9255424438758677
H  1.0795094134140613 0.3499996156673563 0.0005126167679026481
H  -0.5117657224005713 0.45630161920309 -0.9243760281093348
6
Iteration 239 Energy -127.1226161846262 
O  0.07964567572332149 -1.5084055547619903 0.0004052314993720198
H  -1.035053445656854 -1.6958403352831646 0.00013945194106955547
C  -0.00031647345537867444 0.00456003873670453 0.0006500433400284416
H  -0.5117041885411208 0.45653205505836153 0.9255964373200656
H  1.0795663866557246 0.3500301665185995 0.0005129355903781322
H  -0.511796729674269 0.45634766745316446 -0.92442930824544
6
Iteration 240 Energy -127.12261626816466 
O  0.0797665875196326 -1.5084995143340043 0.00040544963952703474
H  -1.035173597142021 -1.6958826616460918 0.00013955902825082264
C  -0.0003107420373532951 0.0045742960988887004 0.0006504897003959083
H  -0.5117351127013189 0.45657827099015746 0.925650431222336
H  1.079623359920621 0.35006071472857725 0.0005132544012807125
H  -0.51182773796418 0.4563937172346096 -0.9244825888361713
6
Iteration 241 Energy -127.1226163401108 
O  0.07988750362552619 -1.5085934747230378 0.0004056677979570299
H  -1.0352937478384787 -1.6959249865994155 0.0001396661272438599
C  -0.00030501353896344226 0.004588552499534257 0.0006509360695891451
H  -0.5117660378841485 0.4566244884713171 0.9257044255840908
H  1.0796803332100082 0.3500912602975854 0.0005135732004679883
H  -0.5118587472704773 0.45643976854813145 -0.9245358698817553
6
Iteration 242 Energy -127.12261643599926 
O  0.08000842404165084 -1.5086874359282465 0.0004058859754920168
H  -1.0354138977490965 -1.6959673101454178 0.000139773238409909
C  -0.0002992879604637176 0.004602807939822179 0.0006513824473013755
H  -0.5117969640906007 0.4566707075033018 0.9257584204058653
H  1.0797373065245117 0.35012180322669184 0.0005138919871540593
H  -0.5118897575936089 0.45648582139483745 -0.9245891513835895
6
Iteration 243 Energy -127.1226165457077 
O  0.08012934877000963 -1.5087813979495561 0.0004061041720584827
H  -1.0355340468759286 -1.6960096322865064 0.00013988036142239786
C  -0.0002935653012518052 0.004617062420035647 0.0006518288342407058
H  -0.5118278913211165 0.4567169280868905 0.9258124156884393
H  1.0797942798650988 0.3501523435164566 0.0005142107627433729
H  -0.5119207689337897 0.45653187577511806 -0.9246424333429963
6
Iteration 244 Energy -127.12261660165728 
O  0.08025027781070715 -1.5088753607882601 0.000406322387207349
H  -1.0356541952216125 -1.69605195302487 0.0001399874963254989
C  -0.00028784555881163944 0.004631315940618401 0.0006522752295866838
H  -0.5118588195747582 0.45676315022247227 0.9258664114322583
H  1.079851253234192 0.35018288116730617 0.0005145295260887086
H  -0.5119517812903768 0.4565779316897648 -0.9246957157601018
6
Iteration 245 Energy -127.12261670992697 
O  0.08037121116397469 -1.5089693244443019 0.0004065406218809304
H  -1.0357743427892 -1.6960942723629764 0.0001400946435145519
C  -0.0002821287339846116 0.004645568502027416 0.0006527216345130431
H  -0.5118897488524222 0.45680937391113824 0.9259204076391093
H  1.0799082266319593 0.35021341618054136 0.0005148482775899077
H  -0.5119827946643067 0.45662398913946955 -0.9247489986354644
6
Iteration 246 Energy -127.12261677603581 
O  0.08049214883126482 -1.509063288918563 0.00040675887547039064
H  -1.0358944895807722 -1.696136590303099 0.000140201802694791
C  -0.0002764148245526539 0.0046598201038420516 0.0006531680473240735
H  -0.5119206791536391 0.4568555991529664 0.9259744043084914
H  1.079965200060266 0.3502439485560461 0.0005151670164709703
H  -0.512013809054957 0.4566700481248348 -0.9248022819712742
6
Iteration 247 Energy -127.12261686977607 
O  0.08061309081401527 -1.5091572542102885 0.0004069771477702842
H  -1.0360146355986595 -1.696178906847555 0.00014030897380131727
C  -0.0002707038305846579 0.004674070747746057 0.0006536144695683512
H  -0.5119516104790401 0.4569018259491019 0.9260284014426219
H  1.080022173520092 0.3502744782950753 0.0005154857433145165
H  -0.5120448244629436 0.45671610864677725 -0.9248555657669825
6
Iteration 248 Energy -127.12261696711464 
O  0.08073403711267056 -1.5092512203189437 0.0004071954396566084
H  -1.0361347808455483 -1.6962212219985402 0.00014041615707709821
C  -0.00026499575165594286 0.0046883204345335786 0.0006540609007698003
H  -0.5119825428290425 0.45694805430083185 0.9260823990418288
H  1.080079147012555 0.35030500539819664 0.0005158044583699731
H  -0.5120758408886543 0.4567621707062386 -0.9249088500248318
6
Iteration 249 Energy -127.12261706376361 
O  0.08085498772605908 -1.5093451872474632 0.00040741375065176695
H  -1.0362549253247064 -1.6962635357585036 0.00014052335236800878
C  -0.0002592905858109491 0.004702569163530302 0.000654507340860554
H  -0.51201347620286 0.4569942842082545 0.9261363971066314
H  1.0801361205393933 0.3503355298653681 0.0005161231615548539
H  -0.512106858331341 0.456808234303556 -0.924962134744631
